LAMMPS (27 Oct 2021)
OMP_NUM_THREADS environment is not set. Defaulting to 1 thread. (src/comm.cpp:98)
  using 1 OpenMP thread(s) per MPI task


# ----------------- Init Section -----------------

include "system.in.init"
    units real
    atom_style full
    bond_style harmonic
    angle_style harmonic
    dihedral_style opls
    improper_style harmonic
    pair_style lj/cut/coul/long 10.0 10.0
    pair_modify mix geometric
    special_bonds lj/coul 0.0 0.0 0.5
    kspace_style pppm 0.0001


# ----------------- Atom Definition Section -----------------

read_data "system.data"
Reading data file ...
  orthogonal box = (-30.000000 -30.000000 -30.000000) to (30.500000 30.500000 30.500000)
  1 by 1 by 1 MPI processor grid
  reading atoms ...
  66 atoms
  scanning bonds ...
  4 = max bonds/atom
  scanning angles ...
  6 = max angles/atom
  scanning dihedrals ...
  15 = max dihedrals/atom
  scanning impropers ...
  1 = max impropers/atom
  reading bonds ...
  64 bonds
  reading angles ...
  121 angles
  reading dihedrals ...
  165 dihedrals
  reading impropers ...
  4 impropers
Finding 1-2 1-3 1-4 neighbors ...
  special bond factors lj:    0        0        0.5     
  special bond factors coul:  0        0        0.5     
     4 = max # of 1-2 neighbors
     9 = max # of 1-3 neighbors
    16 = max # of 1-4 neighbors
    20 = max # of special neighbors
  special bonds CPU = 0.002 seconds
  read_data CPU = 0.021 seconds

# ----------------- Settings Section -----------------

include "system.in.settings"
    pair_coeff 1 1  0.061 2.94
    pair_coeff 2 2  0.118 3.905
    pair_coeff 3 3  0.105 3.75
    pair_coeff 4 4  0.21 2.96
    pair_coeff 5 5  0.17 3.0
    pair_coeff 6 6  0.16 3.91
    pair_coeff 7 7  0.0 0.0
    pair_coeff 8 8  0.294 3.73
    pair_coeff 9 9  0.207 3.775
    pair_coeff 10 10  0.175 3.905
    pair_coeff 11 11  0.16 3.91
    pair_coeff 12 12  0.145 3.96
    pair_coeff 13 13  0.118 3.905
    pair_coeff 14 14  0.14 3.85
    pair_coeff 15 15  0.08 3.85
    pair_coeff 16 16  0.115 3.8
    pair_coeff 17 17  0.11 3.75
    pair_coeff 18 18  0.05 3.8
    pair_coeff 19 19  0.105 3.75
    pair_coeff 20 20  0.17 3.07
    pair_coeff 21 21  0.0 0.0
    pair_coeff 22 22  0.207 3.775
    pair_coeff 23 23  0.118 3.905
    pair_coeff 24 24  0.25 3.7
    pair_coeff 25 25  0.25 3.55
    pair_coeff 26 26  0.25 3.55
    pair_coeff 27 27  0.25 3.55
    pair_coeff 28 28  0.0 0.0
    pair_coeff 29 29  0.0 0.0
    pair_coeff 30 30  0.207 3.775
    pair_coeff 31 31  0.118 3.905
    pair_coeff 32 32  0.17 3.8
    pair_coeff 33 33  0.118 3.8
    pair_coeff 34 34  0.17 3.8
    pair_coeff 35 35  0.118 3.8
    pair_coeff 36 36  0.17 3.2
    pair_coeff 37 37  0.15 3.65
    pair_coeff 38 38  0.207 3.775
    pair_coeff 39 39  0.08 3.85
    pair_coeff 40 40  0.05 3.8
    pair_coeff 41 41  0.17 3.0
    pair_coeff 42 42  0.17 3.8
    pair_coeff 43 43  0.118 3.8
    pair_coeff 44 44  0.118 3.8
    pair_coeff 45 45  0.3 3.4
    pair_coeff 46 46  0.08 3.8
    pair_coeff 47 47  0.3 3.47
    pair_coeff 48 48  0.05 3.8
    pair_coeff 49 49  0.266 3.47
    pair_coeff 50 50  0.395 3.56
    pair_coeff 51 51  0.28 2.93
    pair_coeff 52 52  0.16 3.81
    pair_coeff 53 53  0.21 2.96
    pair_coeff 54 54  0.17 3.25
    pair_coeff 55 55  0.115 3.8
    pair_coeff 56 56  0.17 3.8
    pair_coeff 57 57  0.0 0.0
    pair_coeff 58 58  0.02 2.556
    pair_coeff 59 59  0.069 2.78
    pair_coeff 60 60  0.2339 3.401
    pair_coeff 61 61  0.317 3.624
    pair_coeff 62 62  0.433 3.935
    pair_coeff 63 63  0.1521 3.15061
    pair_coeff 64 64  0.0 0.0
    pair_coeff 65 65  0.155 3.15365
    pair_coeff 66 66  0.0 0.0
    pair_coeff 67 67  0.0 0.0
    pair_coeff 68 68  0.15 3.176
    pair_coeff 69 69  0.0 0.0
    pair_coeff 70 70  0.1 3.27
    pair_coeff 71 71  0.0 0.0
    pair_coeff 72 72  0.0 0.0
    pair_coeff 73 73  0.16 3.12
    pair_coeff 74 74  0.0 0.0
    pair_coeff 75 75  0.0 0.0
    pair_coeff 76 76  0.1554 3.16557
    pair_coeff 77 77  0.0 0.0
    pair_coeff 78 78  0.17 3.42
    pair_coeff 79 79  0.0 0.0
    pair_coeff 80 80  0.066 3.5
    pair_coeff 81 81  0.066 3.5
    pair_coeff 82 82  0.066 3.5
    pair_coeff 83 83  0.066 3.5
    pair_coeff 84 84  0.066 3.5
    pair_coeff 85 85  0.03 2.5
    pair_coeff 86 86  0.076 3.55
    pair_coeff 87 87  0.076 3.55
    pair_coeff 88 88  0.076 3.55
    pair_coeff 89 89  0.03 2.42
    pair_coeff 90 90  0.07 3.55
    pair_coeff 91 91  0.03 2.42
    pair_coeff 92 92  0.07 3.55
    pair_coeff 93 93  0.066 3.5
    pair_coeff 94 94  0.066 3.5
    pair_coeff 95 95  0.076 3.55
    pair_coeff 96 96  0.17 3.12
    pair_coeff 97 97  0.0 0.0
    pair_coeff 98 98  0.03 2.5
    pair_coeff 99 99  0.066 3.5
    pair_coeff 100 100  0.066 3.5
    pair_coeff 101 101  0.066 3.5
    pair_coeff 102 102  0.066 3.5
    pair_coeff 103 103  0.062 3.25
    pair_coeff 104 104  0.17 3.07
    pair_coeff 105 105  0.0 0.0
    pair_coeff 106 106  0.061 2.94
    pair_coeff 107 107  0.03 2.5
    pair_coeff 108 108  0.07 3.55
    pair_coeff 109 109  0.17 3.07
    pair_coeff 110 110  0.0 0.0
    pair_coeff 111 111  0.17 3.07
    pair_coeff 112 112  0.0 0.0
    pair_coeff 113 113  0.17 3.07
    pair_coeff 114 114  0.0 0.0
    pair_coeff 115 115  0.066 3.5
    pair_coeff 116 116  0.066 3.5
    pair_coeff 117 117  0.066 3.5
    pair_coeff 118 118  0.03 2.5
    pair_coeff 119 119  0.14 2.9
    pair_coeff 120 120  0.076 3.55
    pair_coeff 121 121  0.14 2.9
    pair_coeff 122 122  0.14 2.9
    pair_coeff 123 123  0.066 3.5
    pair_coeff 124 124  0.066 3.5
    pair_coeff 125 125  0.066 3.5
    pair_coeff 126 126  0.066 3.5
    pair_coeff 127 127  0.03 2.5
    pair_coeff 128 128  0.14 2.9
    pair_coeff 129 129  0.17 3.07
    pair_coeff 130 130  0.0 0.0
    pair_coeff 131 131  0.066 3.5
    pair_coeff 132 132  0.03 2.5
    pair_coeff 133 133  0.066 3.5
    pair_coeff 134 134  0.03 2.5
    pair_coeff 135 135  0.066 3.5
    pair_coeff 136 136  0.03 2.5
    pair_coeff 137 137  0.066 3.5
    pair_coeff 138 138  0.03 2.5
    pair_coeff 139 139  0.066 3.5
    pair_coeff 140 140  0.066 3.5
    pair_coeff 141 141  0.07 3.55
    pair_coeff 142 142  0.25 3.55
    pair_coeff 143 143  0.25 3.7
    pair_coeff 144 144  0.25 3.55
    pair_coeff 145 145  0.25 3.55
    pair_coeff 146 146  0.0 0.0
    pair_coeff 147 147  0.0 0.0
    pair_coeff 148 148  0.066 3.5
    pair_coeff 149 149  0.066 3.5
    pair_coeff 150 150  0.066 3.5
    pair_coeff 151 151  0.066 3.5
    pair_coeff 152 152  0.066 3.5
    pair_coeff 153 153  0.066 3.5
    pair_coeff 154 154  0.066 3.5
    pair_coeff 155 155  0.066 3.5
    pair_coeff 156 156  0.066 3.5
    pair_coeff 157 157  0.066 3.5
    pair_coeff 158 158  0.066 3.5
    pair_coeff 159 159  0.066 3.5
    pair_coeff 160 160  0.066 3.5
    pair_coeff 161 161  0.066 3.5
    pair_coeff 162 162  0.066 3.5
    pair_coeff 163 163  0.07 3.55
    pair_coeff 164 164  0.25 3.55
    pair_coeff 165 165  0.066 3.5
    pair_coeff 166 166  0.066 3.5
    pair_coeff 167 167  0.066 3.5
    pair_coeff 168 168  0.3 3.4
    pair_coeff 169 169  0.076 3.55
    pair_coeff 170 170  0.07 3.55
    pair_coeff 171 171  0.066 3.5
    pair_coeff 172 172  0.066 3.5
    pair_coeff 173 173  0.105 3.75
    pair_coeff 174 174  0.105 3.75
    pair_coeff 175 175  0.105 3.75
    pair_coeff 176 176  0.105 3.75
    pair_coeff 177 177  0.105 3.75
    pair_coeff 178 178  0.21 2.96
    pair_coeff 179 179  0.17 3.25
    pair_coeff 180 180  0.17 3.25
    pair_coeff 181 181  0.17 3.25
    pair_coeff 182 182  0.0 0.0
    pair_coeff 183 183  0.0 0.0
    pair_coeff 184 184  0.066 3.5
    pair_coeff 185 185  0.066 3.5
    pair_coeff 186 186  0.066 3.5
    pair_coeff 187 187  0.066 3.5
    pair_coeff 188 188  0.066 3.5
    pair_coeff 189 189  0.105 3.75
    pair_coeff 190 190  0.21 2.96
    pair_coeff 191 191  0.17 3.25
    pair_coeff 192 192  0.0 0.0
    pair_coeff 193 193  0.17 3.25
    pair_coeff 194 194  0.105 3.75
    pair_coeff 195 195  0.21 2.96
    pair_coeff 196 196  0.0 0.0
    pair_coeff 197 197  0.02 2.5
    pair_coeff 198 198  0.066 3.5
    pair_coeff 199 199  0.066 3.5
    pair_coeff 200 200  0.066 3.5
    pair_coeff 201 201  0.066 3.5
    pair_coeff 202 202  0.07 3.55
    pair_coeff 203 203  0.15 3.65
    pair_coeff 204 204  0.17 3.2
    pair_coeff 205 205  0.07 3.55
    pair_coeff 206 206  0.3 3.4
    pair_coeff 207 207  0.17 3.25
    pair_coeff 208 208  0.07 3.55
    pair_coeff 209 209  0.105 3.75
    pair_coeff 210 210  0.21 2.96
    pair_coeff 211 211  0.17 3.0
    pair_coeff 212 212  0.0 0.0
    pair_coeff 213 213  0.105 3.75
    pair_coeff 214 214  0.21 2.96
    pair_coeff 215 215  0.066 3.5
    pair_coeff 216 216  0.066 3.5
    pair_coeff 217 217  0.066 3.5
    pair_coeff 218 218  0.066 3.5
    pair_coeff 219 219  0.105 3.75
    pair_coeff 220 220  0.21 2.96
    pair_coeff 221 221  0.015 2.42
    pair_coeff 222 222  0.105 3.75
    pair_coeff 223 223  0.21 2.96
    pair_coeff 224 224  0.015 2.42
    pair_coeff 225 225  0.066 3.5
    pair_coeff 226 226  0.066 3.5
    pair_coeff 227 227  0.066 3.5
    pair_coeff 228 228  0.066 3.5
    pair_coeff 229 229  0.17 3.25
    pair_coeff 230 230  0.17 3.25
    pair_coeff 231 231  0.17 3.25
    pair_coeff 232 232  0.0 0.0
    pair_coeff 233 233  0.0 0.0
    pair_coeff 234 234  0.066 3.5
    pair_coeff 235 235  0.066 3.5
    pair_coeff 236 236  0.066 3.5
    pair_coeff 237 237  0.066 3.5
    pair_coeff 238 238  0.066 3.5
    pair_coeff 239 239  0.066 3.5
    pair_coeff 240 240  0.066 3.5
    pair_coeff 241 241  0.066 3.5
    pair_coeff 242 242  0.066 3.5
    pair_coeff 243 243  0.17 3.25
    pair_coeff 244 244  0.0 0.0
    pair_coeff 245 245  0.05 3.55
    pair_coeff 246 246  0.17 3.25
    pair_coeff 247 247  0.0 0.0
    pair_coeff 248 248  0.066 3.5
    pair_coeff 249 249  0.066 3.5
    pair_coeff 250 250  0.066 3.5
    pair_coeff 251 251  0.066 3.5
    pair_coeff 252 252  0.17 3.25
    pair_coeff 253 253  0.0 0.0
    pair_coeff 254 254  0.17 3.25
    pair_coeff 255 255  0.08 3.5
    pair_coeff 256 256  0.17 3.25
    pair_coeff 257 257  0.0 0.0
    pair_coeff 258 258  0.08 3.5
    pair_coeff 259 259  0.05 2.5
    pair_coeff 260 260  0.08 3.5
    pair_coeff 261 261  0.05 2.5
    pair_coeff 262 262  0.17 3.25
    pair_coeff 263 263  0.105 3.75
    pair_coeff 264 264  0.17 3.25
    pair_coeff 265 265  0.105 3.75
    pair_coeff 266 266  0.08 3.5
    pair_coeff 267 267  0.08 3.5
    pair_coeff 268 268  0.0 0.0
    pair_coeff 269 269  0.21 2.96
    pair_coeff 270 270  0.0 0.0
    pair_coeff 271 271  0.21 2.96
    pair_coeff 272 272  0.05 2.5
    pair_coeff 273 273  0.05 2.5
    pair_coeff 274 274  0.08 3.5
    pair_coeff 275 275  0.05 2.5
    pair_coeff 276 276  0.17 3.25
    pair_coeff 277 277  0.105 3.75
    pair_coeff 278 278  0.17 3.25
    pair_coeff 279 279  0.08 3.5
    pair_coeff 280 280  0.08 3.5
    pair_coeff 281 281  0.08 3.5
    pair_coeff 282 282  0.0 0.0
    pair_coeff 283 283  0.21 2.96
    pair_coeff 284 284  0.17 3.25
    pair_coeff 285 285  0.0 0.0
    pair_coeff 286 286  0.0 0.0
    pair_coeff 287 287  0.05 2.5
    pair_coeff 288 288  0.05 2.5
    pair_coeff 289 289  0.17 3.25
    pair_coeff 290 290  0.08 3.5
    pair_coeff 291 291  0.17 3.25
    pair_coeff 292 292  0.08 3.5
    pair_coeff 293 293  0.08 3.5
    pair_coeff 294 294  0.08 3.5
    pair_coeff 295 295  0.17 3.25
    pair_coeff 296 296  0.08 3.5
    pair_coeff 297 297  0.17 3.25
    pair_coeff 298 298  0.05 2.5
    pair_coeff 299 299  0.17 3.25
    pair_coeff 300 300  0.0 0.0
    pair_coeff 301 301  0.0 0.0
    pair_coeff 302 302  0.05 2.5
    pair_coeff 303 303  0.0 0.0
    pair_coeff 304 304  0.17 3.25
    pair_coeff 305 305  0.08 3.5
    pair_coeff 306 306  0.17 3.25
    pair_coeff 307 307  0.08 3.5
    pair_coeff 308 308  0.08 3.5
    pair_coeff 309 309  0.105 3.75
    pair_coeff 310 310  0.0 0.0
    pair_coeff 311 311  0.17 3.25
    pair_coeff 312 312  0.0 0.0
    pair_coeff 313 313  0.21 2.96
    pair_coeff 314 314  0.08 3.5
    pair_coeff 315 315  0.05 2.5
    pair_coeff 316 316  0.08 3.5
    pair_coeff 317 317  0.05 2.5
    pair_coeff 318 318  0.08 3.5
    pair_coeff 319 319  0.05 2.5
    pair_coeff 320 320  0.17 3.25
    pair_coeff 321 321  0.105 3.75
    pair_coeff 322 322  0.17 3.25
    pair_coeff 323 323  0.08 3.5
    pair_coeff 324 324  0.08 3.5
    pair_coeff 325 325  0.08 3.5
    pair_coeff 326 326  0.0 0.0
    pair_coeff 327 327  0.21 2.96
    pair_coeff 328 328  0.0 0.0
    pair_coeff 329 329  0.17 3.25
    pair_coeff 330 330  0.0 0.0
    pair_coeff 331 331  0.0 0.0
    pair_coeff 332 332  0.05 2.5
    pair_coeff 333 333  0.05 2.5
    pair_coeff 334 334  0.08 3.5
    pair_coeff 335 335  0.05 2.5
    pair_coeff 336 336  0.2 3.74
    pair_coeff 337 337  0.21 2.96
    pair_coeff 338 338  0.17 3.0
    pair_coeff 339 339  0.066 3.55
    pair_coeff 340 340  0.08 3.5
    pair_coeff 341 341  0.3 3.4
    pair_coeff 342 342  0.076 3.55
    pair_coeff 343 343  0.71 3.05
    pair_coeff 344 344  0.71 4.02
    pair_coeff 345 345  0.71 4.28
    pair_coeff 346 346  0.71 4.81
    pair_coeff 347 347  0.0005 5.34
    pair_coeff 348 348  0.0005 2.87
    pair_coeff 349 349  0.0005 4.07
    pair_coeff 350 350  0.0005 5.17
    pair_coeff 351 351  0.0005 5.6
    pair_coeff 352 352  0.0005 6.2
    pair_coeff 353 353  0.875044 1.644471
    pair_coeff 354 354  0.449657 2.412031
    pair_coeff 355 355  0.118226 3.102688
    pair_coeff 356 356  0.047096 3.81661
    pair_coeff 357 357  0.3 4.2
    pair_coeff 358 358  0.05 2.5
    pair_coeff 359 359  0.5 4.25
    pair_coeff 360 360  0.3 4.2
    pair_coeff 361 361  0.05 2.5
    pair_coeff 362 362  0.25 3.15
    pair_coeff 363 363  0.3 4.2
    pair_coeff 364 364  0.05 2.5
    pair_coeff 365 365  0.15 3.65
    pair_coeff 366 366  0.25 3.4
    pair_coeff 367 367  0.3 4.2
    pair_coeff 368 368  0.05 2.5
    pair_coeff 369 369  0.25 3.4
    pair_coeff 370 370  0.05 2.5
    pair_coeff 371 371  0.3 4.2
    pair_coeff 372 372  0.05 2.5
    pair_coeff 373 373  0.3 4.2
    pair_coeff 374 374  0.05 2.5
    pair_coeff 375 375  0.0 0.0
    pair_coeff 376 376  0.25 3.2
    pair_coeff 377 377  0.0 0.0
    pair_coeff 378 378  0.4 2.81524
    pair_coeff 379 379  0.2 3.11815
    pair_coeff 380 380  0.14 2.9
    pair_coeff 381 381  0.2 3.74
    pair_coeff 382 382  0.2 3.15
    pair_coeff 383 383  0.14 2.9
    pair_coeff 384 384  0.066 3.5
    pair_coeff 385 385  0.03 2.5
    pair_coeff 386 386  0.2 3.74
    pair_coeff 387 387  0.2 3.15
    pair_coeff 388 388  0.14 2.9
    pair_coeff 389 389  0.066 3.5
    pair_coeff 390 390  0.03 2.5
    pair_coeff 391 391  0.2 3.74
    pair_coeff 392 392  0.2 3.15
    pair_coeff 393 393  0.14 2.9
    pair_coeff 394 394  0.066 3.5
    pair_coeff 395 395  0.03 2.5
    pair_coeff 396 396  0.066 3.5
    pair_coeff 397 397  0.03 2.5
    pair_coeff 398 398  0.07 3.55
    pair_coeff 399 399  0.066 3.5
    pair_coeff 400 400  0.03 2.5
    pair_coeff 401 401  0.07 3.55
    pair_coeff 402 402  0.066 3.5
    pair_coeff 403 403  0.03 2.5
    pair_coeff 404 404  0.07 3.55
    pair_coeff 405 405  0.066 3.5
    pair_coeff 406 406  0.105 3.75
    pair_coeff 407 407  0.21 2.96
    pair_coeff 408 408  0.17 3.0
    pair_coeff 409 409  0.066 3.5
    pair_coeff 410 410  0.015 2.42
    pair_coeff 411 411  0.105 3.75
    pair_coeff 412 412  0.105 3.75
    pair_coeff 413 413  0.07 3.55
    pair_coeff 414 414  0.17 3.0
    pair_coeff 415 415  0.25 3.55
    pair_coeff 416 416  0.17 2.96
    pair_coeff 417 417  0.066 3.5
    pair_coeff 418 418  0.03 2.5
    pair_coeff 419 419  0.17 3.25
    pair_coeff 420 420  0.0 0.0
    pair_coeff 421 421  0.17 3.25
    pair_coeff 422 422  0.0 0.0
    pair_coeff 423 423  0.066 3.5
    pair_coeff 424 424  0.03 2.5
    pair_coeff 425 425  0.066 3.5
    pair_coeff 426 426  0.03 2.5
    pair_coeff 427 427  0.066 3.5
    pair_coeff 428 428  0.03 2.5
    pair_coeff 429 429  0.07 3.55
    pair_coeff 430 430  0.07 3.55
    pair_coeff 431 431  0.066 3.5
    pair_coeff 432 432  0.066 3.5
    pair_coeff 433 433  0.066 3.5
    pair_coeff 434 434  0.25 3.55
    pair_coeff 435 435  0.17 2.96
    pair_coeff 436 436  0.395 3.56
    pair_coeff 437 437  0.395 3.56
    pair_coeff 438 438  0.28 2.93
    pair_coeff 439 439  0.066 3.5
    pair_coeff 440 440  0.066 3.5
    pair_coeff 441 441  0.07 3.55
    pair_coeff 442 442  0.07 3.55
    pair_coeff 443 443  0.07 3.55
    pair_coeff 444 444  0.17 3.25
    pair_coeff 445 445  0.0 0.0
    pair_coeff 446 446  0.066 3.5
    pair_coeff 447 447  0.07 3.55
    pair_coeff 448 448  0.07 3.55
    pair_coeff 449 449  0.07 3.55
    pair_coeff 450 450  0.07 3.55
    pair_coeff 451 451  0.07 3.55
    pair_coeff 452 452  0.17 3.25
    pair_coeff 453 453  0.17 3.25
    pair_coeff 454 454  0.0 0.0
    pair_coeff 455 455  0.07 3.55
    pair_coeff 456 456  0.066 3.5
    pair_coeff 457 457  0.066 3.5
    pair_coeff 458 458  0.076 3.55
    pair_coeff 459 459  0.076 3.55
    pair_coeff 460 460  0.07 3.55
    pair_coeff 461 461  0.17 3.25
    pair_coeff 462 462  0.07 3.55
    pair_coeff 463 463  0.07 3.55
    pair_coeff 464 464  0.07 3.55
    pair_coeff 465 465  0.03 2.42
    pair_coeff 466 466  0.03 2.42
    pair_coeff 467 467  0.03 2.42
    pair_coeff 468 468  0.17 3.25
    pair_coeff 469 469  0.07 3.55
    pair_coeff 470 470  0.03 2.42
    pair_coeff 471 471  0.17 3.25
    pair_coeff 472 472  0.07 3.55
    pair_coeff 473 473  0.07 3.55
    pair_coeff 474 474  0.07 3.55
    pair_coeff 475 475  0.03 2.42
    pair_coeff 476 476  0.03 2.42
    pair_coeff 477 477  0.03 2.42
    pair_coeff 478 478  0.17 3.25
    pair_coeff 479 479  0.07 3.55
    pair_coeff 480 480  0.07 3.55
    pair_coeff 481 481  0.03 2.42
    pair_coeff 482 482  0.03 2.42
    pair_coeff 483 483  0.17 3.25
    pair_coeff 484 484  0.07 3.55
    pair_coeff 485 485  0.07 3.55
    pair_coeff 486 486  0.0 0.0
    pair_coeff 487 487  0.03 2.42
    pair_coeff 488 488  0.03 2.42
    pair_coeff 489 489  0.17 3.25
    pair_coeff 490 490  0.17 3.25
    pair_coeff 491 491  0.07 3.55
    pair_coeff 492 492  0.07 3.55
    pair_coeff 493 493  0.07 3.55
    pair_coeff 494 494  0.0 0.0
    pair_coeff 495 495  0.03 2.42
    pair_coeff 496 496  0.03 2.42
    pair_coeff 497 497  0.03 2.42
    pair_coeff 498 498  0.17 3.25
    pair_coeff 499 499  0.07 3.55
    pair_coeff 500 500  0.17 3.25
    pair_coeff 501 501  0.07 3.55
    pair_coeff 502 502  0.07 3.55
    pair_coeff 503 503  0.0 0.0
    pair_coeff 504 504  0.03 2.42
    pair_coeff 505 505  0.03 2.42
    pair_coeff 506 506  0.03 2.42
    pair_coeff 507 507  0.14 2.9
    pair_coeff 508 508  0.07 3.55
    pair_coeff 509 509  0.076 3.55
    pair_coeff 510 510  0.03 2.42
    pair_coeff 511 511  0.03 2.42
    pair_coeff 512 512  0.14 2.9
    pair_coeff 513 513  0.07 3.55
    pair_coeff 514 514  0.17 3.25
    pair_coeff 515 515  0.07 3.55
    pair_coeff 516 516  0.07 3.55
    pair_coeff 517 517  0.03 2.42
    pair_coeff 518 518  0.03 2.42
    pair_coeff 519 519  0.03 2.42
    pair_coeff 520 520  0.14 2.9
    pair_coeff 521 521  0.17 3.25
    pair_coeff 522 522  0.07 3.55
    pair_coeff 523 523  0.07 3.55
    pair_coeff 524 524  0.07 3.55
    pair_coeff 525 525  0.03 2.42
    pair_coeff 526 526  0.03 2.42
    pair_coeff 527 527  0.03 2.42
    pair_coeff 528 528  0.17 3.25
    pair_coeff 529 529  0.07 3.55
    pair_coeff 530 530  0.07 3.55
    pair_coeff 531 531  0.07 3.55
    pair_coeff 532 532  0.07 3.55
    pair_coeff 533 533  0.07 3.55
    pair_coeff 534 534  0.07 3.55
    pair_coeff 535 535  0.07 3.55
    pair_coeff 536 536  0.07 3.55
    pair_coeff 537 537  0.0 0.0
    pair_coeff 538 538  0.03 2.42
    pair_coeff 539 539  0.03 2.42
    pair_coeff 540 540  0.03 2.42
    pair_coeff 541 541  0.03 2.42
    pair_coeff 542 542  0.03 2.42
    pair_coeff 543 543  0.03 2.42
    pair_coeff 544 544  0.17 3.25
    pair_coeff 545 545  0.07 3.55
    pair_coeff 546 546  0.07 3.55
    pair_coeff 547 547  0.07 3.55
    pair_coeff 548 548  0.07 3.55
    pair_coeff 549 549  0.07 3.55
    pair_coeff 550 550  0.07 3.55
    pair_coeff 551 551  0.07 3.55
    pair_coeff 552 552  0.07 3.55
    pair_coeff 553 553  0.07 3.55
    pair_coeff 554 554  0.03 2.42
    pair_coeff 555 555  0.03 2.42
    pair_coeff 556 556  0.03 2.42
    pair_coeff 557 557  0.03 2.42
    pair_coeff 558 558  0.03 2.42
    pair_coeff 559 559  0.03 2.42
    pair_coeff 560 560  0.03 2.42
    pair_coeff 561 561  0.17 3.25
    pair_coeff 562 562  0.07 3.55
    pair_coeff 563 563  0.17 3.25
    pair_coeff 564 564  0.07 3.55
    pair_coeff 565 565  0.07 3.55
    pair_coeff 566 566  0.07 3.55
    pair_coeff 567 567  0.17 3.25
    pair_coeff 568 568  0.07 3.55
    pair_coeff 569 569  0.17 3.25
    pair_coeff 570 570  0.03 2.42
    pair_coeff 571 571  0.03 2.42
    pair_coeff 572 572  0.03 2.42
    pair_coeff 573 573  0.0 0.0
    pair_coeff 574 574  0.25 3.55
    pair_coeff 575 575  0.07 3.55
    pair_coeff 576 576  0.17 3.25
    pair_coeff 577 577  0.07 3.55
    pair_coeff 578 578  0.07 3.55
    pair_coeff 579 579  0.03 2.42
    pair_coeff 580 580  0.03 2.42
    pair_coeff 581 581  0.03 2.42
    pair_coeff 582 582  0.17 3.25
    pair_coeff 583 583  0.07 3.55
    pair_coeff 584 584  0.03 2.42
    pair_coeff 585 585  0.07 3.55
    pair_coeff 586 586  0.066 3.5
    pair_coeff 587 587  0.17 3.25
    pair_coeff 588 588  0.07 3.55
    pair_coeff 589 589  0.07 3.55
    pair_coeff 590 590  0.07 3.55
    pair_coeff 591 591  0.07 3.55
    pair_coeff 592 592  0.07 3.55
    pair_coeff 593 593  0.07 3.55
    pair_coeff 594 594  0.03 2.42
    pair_coeff 595 595  0.03 2.42
    pair_coeff 596 596  0.03 2.42
    pair_coeff 597 597  0.03 2.42
    pair_coeff 598 598  0.17 3.25
    pair_coeff 599 599  0.07 3.55
    pair_coeff 600 600  0.17 3.25
    pair_coeff 601 601  0.07 3.55
    pair_coeff 602 602  0.07 3.55
    pair_coeff 603 603  0.066 3.5
    pair_coeff 604 604  0.03 2.42
    pair_coeff 605 605  0.03 2.42
    pair_coeff 606 606  0.03 2.42
    pair_coeff 607 607  0.03 2.5
    pair_coeff 608 608  0.066 3.5
    pair_coeff 609 609  0.066 3.5
    pair_coeff 610 610  0.066 3.5
    pair_coeff 611 611  0.066 3.5
    pair_coeff 612 612  0.066 3.5
    pair_coeff 613 613  0.066 3.5
    pair_coeff 614 614  0.066 3.5
    pair_coeff 615 615  0.066 3.5
    pair_coeff 616 616  0.066 3.5
    pair_coeff 617 617  0.066 3.5
    pair_coeff 618 618  0.066 3.5
    pair_coeff 619 619  0.066 3.5
    pair_coeff 620 620  0.066 3.5
    pair_coeff 621 621  0.066 3.5
    pair_coeff 622 622  0.066 3.5
    pair_coeff 623 623  0.25 3.55
    pair_coeff 624 624  0.0 0.0
    pair_coeff 625 625  0.07 3.55
    pair_coeff 626 626  0.105 3.75
    pair_coeff 627 627  0.17 3.25
    pair_coeff 628 628  0.066 3.5
    pair_coeff 629 629  0.066 3.5
    pair_coeff 630 630  0.066 3.5
    pair_coeff 631 631  0.07 3.55
    pair_coeff 632 632  0.07 3.55
    pair_coeff 633 633  0.07 3.55
    pair_coeff 634 634  0.07 3.55
    pair_coeff 635 635  0.07 3.55
    pair_coeff 636 636  0.07 3.55
    pair_coeff 637 637  0.25 3.55
    pair_coeff 638 638  0.054 3.473
    pair_coeff 639 639  0.05 3.3
    pair_coeff 640 640  0.05 3.3
    pair_coeff 641 641  0.076 3.55
    pair_coeff 642 642  0.066 3.5
    pair_coeff 643 643  0.03 2.5
    pair_coeff 644 644  0.06 3.75
    pair_coeff 645 645  0.054 3.473
    pair_coeff 646 646  0.05 3.3
    pair_coeff 647 647  0.05 3.3
    pair_coeff 648 648  0.04 2.95
    pair_coeff 649 649  0.076 3.55
    pair_coeff 650 650  0.3 3.4
    pair_coeff 651 651  0.03 2.42
    pair_coeff 652 652  0.066 3.5
    pair_coeff 653 653  0.066 3.5
    pair_coeff 654 654  0.066 3.5
    pair_coeff 655 655  0.07 3.55
    pair_coeff 656 656  0.03 2.42
    pair_coeff 657 657  0.07 3.55
    pair_coeff 658 658  0.03 2.42
    pair_coeff 659 659  0.07 3.55
    pair_coeff 660 660  0.061 2.85
    pair_coeff 661 661  0.07 3.55
    pair_coeff 662 662  0.061 2.85
    pair_coeff 663 663  0.47 3.47
    pair_coeff 664 664  0.118 3.905
    pair_coeff 665 665  0.07 3.55
    pair_coeff 666 666  0.062 3.25
    pair_coeff 667 667  0.061 2.94
    pair_coeff 668 668  0.07 3.55
    pair_coeff 669 669  0.061 2.85
    pair_coeff 670 670  0.07 3.55
    pair_coeff 671 671  0.47 3.47
    pair_coeff 672 672  0.07 3.55
    pair_coeff 673 673  0.6 3.75
    pair_coeff 674 674  0.066 3.5
    pair_coeff 675 675  0.25 3.55
    pair_coeff 676 676  0.07 3.55
    pair_coeff 677 677  0.07 3.55
    pair_coeff 678 678  0.07 3.55
    pair_coeff 679 679  0.07 3.55
    pair_coeff 680 680  0.07 3.55
    pair_coeff 681 681  0.03 2.42
    pair_coeff 682 682  0.03 2.42
    pair_coeff 683 683  0.05 3.55
    pair_coeff 684 684  0.17 3.25
    pair_coeff 685 685  0.0 0.0
    pair_coeff 686 686  0.0 0.0
    pair_coeff 687 687  0.03 2.42
    pair_coeff 688 688  0.066 3.5
    pair_coeff 689 689  0.066 3.5
    pair_coeff 690 690  0.17 3.25
    pair_coeff 691 691  0.17 3.25
    pair_coeff 692 692  0.17 3.25
    pair_coeff 693 693  0.05 3.55
    pair_coeff 694 694  0.17 3.2
    pair_coeff 695 695  0.066 3.3
    pair_coeff 696 696  0.066 3.3
    pair_coeff 697 697  0.066 3.3
    pair_coeff 698 698  0.066 3.3
    pair_coeff 699 699  0.066 3.3
    pair_coeff 700 700  0.015 2.5
    pair_coeff 701 701  0.12 3.25
    pair_coeff 702 702  0.17 2.96
    pair_coeff 703 703  0.066 3.5
    pair_coeff 704 704  0.015 2.5
    pair_coeff 705 705  0.066 3.5
    pair_coeff 706 706  0.066 3.5
    pair_coeff 707 707  0.066 3.5
    pair_coeff 708 708  0.12 3.25
    pair_coeff 709 709  0.07 3.55
    pair_coeff 710 710  0.066 3.3
    pair_coeff 711 711  0.17 3.25
    pair_coeff 712 712  0.21 2.96
    pair_coeff 713 713  0.105 3.75
    pair_coeff 714 714  0.17 3.0
    pair_coeff 715 715  0.066 3.5
    pair_coeff 716 716  0.066 3.5
    pair_coeff 717 717  0.066 3.5
    pair_coeff 718 718  0.015 2.42
    pair_coeff 719 719  0.015 2.42
    pair_coeff 720 720  0.015 2.42
    pair_coeff 721 721  0.14 2.9
    pair_coeff 722 722  0.2 3.74
    pair_coeff 723 723  0.066 3.5
    pair_coeff 724 724  0.066 3.5
    pair_coeff 725 725  0.03 2.5
    pair_coeff 726 726  0.2 3.74
    pair_coeff 727 727  0.061 3.1181
    pair_coeff 728 728  0.17 3.15
    pair_coeff 729 729  0.21 2.86
    pair_coeff 730 730  0.17 3.3
    pair_coeff 731 731  0.17 3.3
    pair_coeff 732 732  0.17 3.3
    pair_coeff 733 733  0.066 3.5
    pair_coeff 734 734  0.066 3.5
    pair_coeff 735 735  0.066 3.5
    pair_coeff 736 736  0.066 3.5
    pair_coeff 737 737  0.066 3.5
    pair_coeff 738 738  0.066 3.5
    pair_coeff 739 739  0.0 0.0
    pair_coeff 740 740  0.0 0.0
    pair_coeff 741 741  0.015 2.5
    pair_coeff 742 742  0.066 3.5
    pair_coeff 743 743  0.066 3.5
    pair_coeff 744 744  0.066 3.5
    pair_coeff 745 745  0.066 3.5
    pair_coeff 746 746  0.07 3.55
    pair_coeff 747 747  0.07 3.55
    pair_coeff 748 748  0.07 3.55
    pair_coeff 749 749  0.066 3.5
    pair_coeff 750 750  0.066 3.5
    pair_coeff 751 751  0.066 3.5
    pair_coeff 752 752  0.066 3.5
    pair_coeff 753 753  0.066 3.5
    pair_coeff 754 754  0.066 3.5
    pair_coeff 755 755  0.086 3.3
    pair_coeff 756 756  0.015 2.42
    pair_coeff 757 757  0.21 3.3
    pair_coeff 758 758  0.135 3.3
    pair_coeff 759 759  0.1 3.3
    pair_coeff 760 760  0.015 2.5
    pair_coeff 761 761  0.066 3.5
    pair_coeff 762 762  0.066 3.5
    pair_coeff 763 763  0.066 3.5
    pair_coeff 764 764  0.17 3.12
    pair_coeff 765 765  0.0 0.0
    pair_coeff 766 766  0.17 3.25
    pair_coeff 767 767  0.17 3.25
    pair_coeff 768 768  0.17 3.25
    pair_coeff 769 769  0.21 3.3
    pair_coeff 770 770  0.17 3.25
    pair_coeff 771 771  0.0 0.0
    pair_coeff 772 772  0.066 3.5
    pair_coeff 773 773  0.066 3.5
    pair_coeff 774 774  0.066 3.5
    pair_coeff 775 775  0.066 3.5
    pair_coeff 776 776  0.07 3.55
    pair_coeff 777 777  0.076 3.55
    pair_coeff 778 778  0.07 3.55
    pair_coeff 779 779  0.07 3.55
    pair_coeff 780 780  0.03 2.5
    pair_coeff 781 781  0.066 3.5
    pair_coeff 782 782  0.105 3.75
    pair_coeff 783 783  0.17 3.25
    pair_coeff 784 784  0.21 2.96
    pair_coeff 785 785  0.0 0.0
    pair_coeff 786 786  0.061 2.94
    pair_coeff 787 787  0.066 3.5
    pair_coeff 788 788  0.03 2.5
    pair_coeff 789 789  0.066 3.5
    pair_coeff 790 790  0.066 3.5
    pair_coeff 791 791  0.066 3.5
    pair_coeff 792 792  0.066 3.5
    pair_coeff 793 793  0.066 3.5
    pair_coeff 794 794  0.097 3.5
    pair_coeff 795 795  0.053 2.95
    pair_coeff 796 796  0.062 3.25
    pair_coeff 797 797  0.03 2.5
    pair_coeff 798 798  0.066 3.5
    pair_coeff 799 799  0.066 3.5
    pair_coeff 800 800  0.3 3.4
    pair_coeff 801 801  0.066 3.5
    pair_coeff 802 802  0.03 2.5
    pair_coeff 803 803  0.066 3.5
    pair_coeff 804 804  0.066 3.5
    pair_coeff 805 805  0.47 3.47
    pair_coeff 806 806  0.066 3.5
    pair_coeff 807 807  0.03 2.5
    pair_coeff 808 808  0.066 3.5
    pair_coeff 809 809  0.066 3.5
    pair_coeff 810 810  0.061 2.94
    pair_coeff 811 811  0.3 3.4
    pair_coeff 812 812  0.47 3.47
    pair_coeff 813 813  0.07 3.55
    pair_coeff 814 814  0.14 2.9
    pair_coeff 815 815  0.066 3.5
    pair_coeff 816 816  0.06 2.9
    pair_coeff 817 817  0.17 3.25
    pair_coeff 818 818  0.07 3.55
    pair_coeff 819 819  0.066 3.5
    pair_coeff 820 820  0.105 3.75
    pair_coeff 821 821  0.105 3.75
    pair_coeff 822 822  0.21 2.96
    pair_coeff 823 823  0.17 3.25
    pair_coeff 824 824  0.0 0.0
    pair_coeff 825 825  0.17 3.12
    pair_coeff 826 826  0.0 0.0
    pair_coeff 827 827  0.066 3.5
    pair_coeff 828 828  0.066 3.5
    pair_coeff 829 829  0.07 3.55
    pair_coeff 830 830  0.07 3.55
    pair_coeff 831 831  0.07 3.55
    pair_coeff 832 832  0.07 3.55
    pair_coeff 833 833  0.07 3.55
    pair_coeff 834 834  0.0125 1.96
    pair_coeff 835 835  0.066 3.5
    pair_coeff 836 836  0.066 3.5
    pair_coeff 837 837  0.066 3.5
    pair_coeff 838 838  0.6 3.75
    pair_coeff 839 839  0.03 2.5
    pair_coeff 840 840  0.17 3.25
    pair_coeff 841 841  0.07 3.55
    pair_coeff 842 842  0.07 3.55
    pair_coeff 843 843  0.17 3.25
    pair_coeff 844 844  0.07 3.55
    pair_coeff 845 845  0.105 3.75
    pair_coeff 846 846  0.21 2.96
    pair_coeff 847 847  0.17 3.25
    pair_coeff 848 848  0.066 3.5
    pair_coeff 849 849  0.066 3.5
    pair_coeff 850 850  0.066 3.5
    pair_coeff 851 851  0.066 3.5
    pair_coeff 852 852  0.015 2.42
    pair_coeff 853 853  0.105 3.75
    pair_coeff 854 854  0.21 2.96
    pair_coeff 855 855  0.015 2.42
    pair_coeff 856 856  0.066 3.5
    pair_coeff 857 857  0.066 3.5
    pair_coeff 858 858  0.066 3.5
    pair_coeff 859 859  0.066 3.5
    pair_coeff 860 860  0.066 3.5
    pair_coeff 861 861  0.066 3.5
    pair_coeff 862 862  0.066 3.5
    pair_coeff 863 863  0.066 3.5
    pair_coeff 864 864  0.066 3.5
    pair_coeff 865 865  0.066 3.5
    pair_coeff 866 866  0.1 4.0
    pair_coeff 867 867  0.1 4.0
    pair_coeff 868 868  0.1 4.0
    pair_coeff 869 869  0.1 4.0
    pair_coeff 870 870  0.03 2.5
    pair_coeff 871 871  0.066 3.5
    pair_coeff 872 872  0.066 3.5
    pair_coeff 873 873  0.066 3.5
    pair_coeff 874 874  0.066 3.5
    pair_coeff 875 875  0.72 3.08
    pair_coeff 876 876  0.11779 4.18
    pair_coeff 877 877  0.09 4.51
    pair_coeff 878 878  0.07 5.15
    pair_coeff 879 879  0.018279 2.7
    pair_coeff 880 880  0.002772 3.35
    pair_coeff 881 881  0.000328 4.06
    pair_coeff 882 882  0.000171 4.32
    pair_coeff 883 883  8.1e-05 4.82
    pair_coeff 884 884  0.875044 2.91
    pair_coeff 885 885  0.449657 3.47
    pair_coeff 886 886  0.118226 3.82
    pair_coeff 887 887  0.047096 4.18
    pair_coeff 888 888  0.066 3.5
    pair_coeff 889 889  0.066 3.5
    pair_coeff 890 890  0.066 3.5
    pair_coeff 891 891  0.066 3.5
    pair_coeff 892 892  0.03 2.5
    pair_coeff 893 893  0.17 3.25
    pair_coeff 894 894  0.07 3.55
    pair_coeff 895 895  0.17 3.25
    pair_coeff 896 896  0.07 3.55
    pair_coeff 897 897  0.076 3.55
    pair_coeff 898 898  0.076 3.55
    pair_coeff 899 899  0.03 2.42
    pair_coeff 900 900  0.086 3.3
    pair_coeff 901 901  0.086 3.3
    pair_coeff 902 902  0.086 3.3
    pair_coeff 903 903  0.086 3.3
    pair_coeff 904 904  0.086 3.3
    pair_coeff 905 905  0.21 2.96
    pair_coeff 906 906  0.066 3.5
    bond_coeff 1  367.0 1.38
    bond_coeff 2  420.0 1.357
    bond_coeff 3  367.0 1.36
    bond_coeff 4  450.0 1.279
    bond_coeff 5  300.0 0.3
    bond_coeff 6  420.0 1.34
    bond_coeff 7  420.0 1.354
    bond_coeff 8  420.0 1.354
    bond_coeff 9  420.0 1.354
    bond_coeff 10  420.0 1.354
    bond_coeff 11  420.0 1.354
    bond_coeff 12  420.0 1.354
    bond_coeff 13  461.0 1.57
    bond_coeff 14  260.0 1.526
    bond_coeff 15  317.0 1.522
    bond_coeff 16  386.0 1.425
    bond_coeff 17  260.0 1.526
    bond_coeff 18  260.0 1.526
    bond_coeff 19  317.0 1.5
    bond_coeff 20  317.0 1.51
    bond_coeff 21  260.0 1.526
    bond_coeff 22  317.0 1.5
    bond_coeff 23  222.0 1.81
    bond_coeff 24  222.0 1.81
    bond_coeff 25  320.0 1.425
    bond_coeff 26  337.0 1.449
    bond_coeff 27  382.0 1.448
    bond_coeff 28  317.0 1.51
    bond_coeff 29  260.0 1.526
    bond_coeff 30  367.0 1.471
    bond_coeff 31  337.0 1.463
    bond_coeff 32  317.0 1.495
    bond_coeff 33  350.0 1.51
    bond_coeff 34  570.0 1.229
    bond_coeff 35  450.0 1.364
    bond_coeff 36  317.0 1.522
    bond_coeff 37  317.0 1.522
    bond_coeff 38  469.0 1.4
    bond_coeff 39  317.0 1.522
    bond_coeff 40  400.0 1.444
    bond_coeff 41  214.0 1.327
    bond_coeff 42  300.0 1.79
    bond_coeff 43  490.0 1.335
    bond_coeff 44  317.0 1.522
    bond_coeff 45  340.0 1.09
    bond_coeff 46  410.0 1.444
    bond_coeff 47  400.0 1.49
    bond_coeff 48  385.0 1.46
    bond_coeff 49  656.0 1.25
    bond_coeff 50  457.0 1.358
    bond_coeff 51  418.0 1.388
    bond_coeff 52  447.0 1.419
    bond_coeff 53  300.0 1.98
    bond_coeff 54  400.0 1.49
    bond_coeff 55  385.0 1.46
    bond_coeff 56  424.0 1.383
    bond_coeff 57  490.0 1.335
    bond_coeff 58  553.0 0.3
    bond_coeff 59  525.0 1.48
    bond_coeff 60  570.0 1.229
    bond_coeff 61  700.0 1.171
    bond_coeff 62  386.0 1.425
    bond_coeff 63  553.0 0.945
    bond_coeff 64  386.0 1.425
    bond_coeff 65  320.0 1.41
    bond_coeff 66  250.0 1.47
    bond_coeff 67  400.0 1.38
    bond_coeff 68  340.0 0.3
    bond_coeff 69  320.0 1.45
    bond_coeff 70  450.0 1.37
    bond_coeff 71  450.0 1.364
    bond_coeff 72  320.0 1.38
    bond_coeff 73  230.0 1.61
    bond_coeff 74  450.0 1.67
    bond_coeff 75  94.0 1.8
    bond_coeff 76  374.0 1.64
    bond_coeff 77  260.0 1.526
    bond_coeff 78  260.0 1.526
    bond_coeff 79  317.0 1.5
    bond_coeff 80  260.0 1.526
    bond_coeff 81  317.0 1.5
    bond_coeff 82  222.0 1.81
    bond_coeff 83  222.0 1.81
    bond_coeff 84  320.0 1.425
    bond_coeff 85  337.0 1.449
    bond_coeff 86  382.0 1.448
    bond_coeff 87  317.0 1.51
    bond_coeff 88  260.0 1.526
    bond_coeff 89  367.0 1.471
    bond_coeff 90  337.0 1.463
    bond_coeff 91  222.0 1.81
    bond_coeff 92  337.0 1.475
    bond_coeff 93  553.0 0.945
    bond_coeff 94  340.0 0.1
    bond_coeff 95  530.0 1.34
    bond_coeff 96  530.0 1.34
    bond_coeff 97  530.0 1.34
    bond_coeff 98  260.0 1.526
    bond_coeff 99  317.0 1.5
    bond_coeff 100  317.0 1.5
    bond_coeff 101  320.0 1.425
    bond_coeff 102  337.0 1.449
    bond_coeff 103  382.0 1.448
    bond_coeff 104  337.0 1.475
    bond_coeff 105  530.0 1.34
    bond_coeff 106  317.0 1.5
    bond_coeff 107  530.0 1.34
    bond_coeff 108  222.0 1.76
    bond_coeff 109  469.0 1.4
    bond_coeff 110  469.0 1.4
    bond_coeff 111  469.0 1.4
    bond_coeff 112  469.0 1.4
    bond_coeff 113  268.0 1.529
    bond_coeff 114  317.0 1.5
    bond_coeff 115  222.0 1.81
    bond_coeff 116  222.0 1.81
    bond_coeff 117  390.0 1.43
    bond_coeff 118  390.0 1.47
    bond_coeff 119  320.0 1.41
    bond_coeff 120  245.0 1.781
    bond_coeff 121  340.0 1.79
    bond_coeff 122  337.0 1.449
    bond_coeff 123  340.0 0.3
    bond_coeff 124  382.0 1.448
    bond_coeff 125  340.0 1.09
    bond_coeff 126  317.0 1.51
    bond_coeff 127  317.0 1.51
    bond_coeff 128  317.0 1.51
    bond_coeff 129  268.0 1.529
    bond_coeff 130  367.0 1.471
    bond_coeff 131  337.0 1.463
    bond_coeff 132  337.0 1.449
    bond_coeff 133  337.0 1.475
    bond_coeff 134  317.0 1.51
    bond_coeff 135  212.0 1.843
    bond_coeff 136  245.0 1.945
    bond_coeff 137  200.0 2.19
    bond_coeff 138  340.0 1.77
    bond_coeff 139  317.0 1.495
    bond_coeff 140  317.0 1.504
    bond_coeff 141  317.0 1.504
    bond_coeff 142  317.0 1.504
    bond_coeff 143  317.0 1.495
    bond_coeff 144  337.0 1.449
    bond_coeff 145  280.0 1.51
    bond_coeff 146  532.8 1.46
    bond_coeff 147  382.0 1.448
    bond_coeff 148  375.0 1.49
    bond_coeff 149  212.0 1.82
    bond_coeff 150  337.0 1.475
    bond_coeff 151  337.0 1.449
    bond_coeff 152  187.0 1.86
    bond_coeff 153  317.0 1.51
    bond_coeff 154  530.0 1.34
    bond_coeff 155  274.0 1.336
    bond_coeff 156  250.0 1.74
    bond_coeff 157  166.0 2.038
    bond_coeff 158  300.0 1.685
    bond_coeff 159  250.0 1.73
    bond_coeff 160  340.0 0.5
    bond_coeff 161  250.0 1.76
    bond_coeff 162  250.0 1.76
    bond_coeff 163  250.0 1.73
    bond_coeff 164  250.0 1.76
    bond_coeff 165  250.0 1.74
    bond_coeff 166  222.0 1.81
    bond_coeff 167  144.0 2.15
    bond_coeff 168  340.0 0.1
    bond_coeff 169  550.0 1.12
    bond_coeff 170  650.0 1.157
    bond_coeff 171  400.0 1.41
    bond_coeff 172  550.0 1.24
    bond_coeff 173  1150.0 1.21
    bond_coeff 174  330.0 1.637
    bond_coeff 175  420.0 1.08
    bond_coeff 176  400.0 1.426
    bond_coeff 177  400.0 1.451
    bond_coeff 178  400.0 1.426
    bond_coeff 179  330.0 1.784
    bond_coeff 180  400.0 1.451
    bond_coeff 181  400.0 1.451
    bond_coeff 182  250.0 1.47
    bond_coeff 183  200.0 1.69
    bond_coeff 184  320.0 1.45
    bond_coeff 185  340.0 0.3
    bond_coeff 186  320.0 1.45
    bond_coeff 187  450.0 1.37
    bond_coeff 188  450.0 1.364
    bond_coeff 189  320.0 1.38
    bond_coeff 190  340.0 1.36
    bond_coeff 191  462.0 1.399
    bond_coeff 192  230.0 1.61
    bond_coeff 193  462.0 1.357
    bond_coeff 194  340.0 1.36
    bond_coeff 195  374.0 1.64
    bond_coeff 196  300.0 0.3
    bond_coeff 197  300.0 1.725
    bond_coeff 198  300.0 1.725
    bond_coeff 199  300.0 1.725
    bond_coeff 200  300.0 1.725
    bond_coeff 201  300.0 1.725
    bond_coeff 202  300.0 1.725
    bond_coeff 203  300.0 1.725
    bond_coeff 204  223.0 2.02
    bond_coeff 205  700.0 1.53
    bond_coeff 206  340.0 0.5
    bond_coeff 207  340.0 0.3
    bond_coeff 208  700.0 1.44
    bond_coeff 209  367.0 0.3
    bond_coeff 210  434.0 1.01
    bond_coeff 211  427.0 1.381
    bond_coeff 212  427.0 1.381
    bond_coeff 213  434.0 1.67
    bond_coeff 214  427.0 1.381
    bond_coeff 215  427.0 1.381
    bond_coeff 216  337.0 1.449
    bond_coeff 217  500.0 1.27
    bond_coeff 218  40.0 2.05
    bond_coeff 219  340.0 0.3
    bond_coeff 220  340.0 0.3
    bond_coeff 221  340.0 0.1
    bond_coeff 222  340.0 0.3
    bond_coeff 223  340.0 0.3
    bond_coeff 224  367.0 0.3
    bond_coeff 225  340.0 0.3
    bond_coeff 226  340.0 0.3
    bond_coeff 227  367.0 0.3
    bond_coeff 228  367.0 0.3
    bond_coeff 229  300.0 0.3
    bond_coeff 230  340.0 0.1
    bond_coeff 231  600.0 0.9572
    bond_coeff 232  900.0 0.15
    bond_coeff 233  40.0 2.05
    bond_coeff 234  529.6 0.9572
    bond_coeff 235  600.0 0.9572
    bond_coeff 236  900.0 0.175
    bond_coeff 237  600.0 0.9572
    bond_coeff 238  900.0 0.7
    bond_coeff 239  600.0 1.0
    bond_coeff 240  350.0 1.445
    bond_coeff 241  434.0 1.01
    bond_coeff 242  481.0 1.34
    bond_coeff 243  340.0 1.77
    bond_coeff 244  382.0 1.448
    bond_coeff 245  266.0 1.74
    bond_coeff 246  434.0 1.01
    bond_coeff 247  434.0 1.01
    bond_coeff 248  434.0 1.01
    bond_coeff 249  434.0 1.01
    bond_coeff 250  434.0 1.01
    bond_coeff 251  434.0 1.01
    bond_coeff 252  166.0 1.48
    bond_coeff 253  340.0 1.08
    bond_coeff 254  340.0 1.08
    bond_coeff 255  340.0 1.09
    bond_coeff 256  340.0 1.08
    bond_coeff 257  340.0 1.088
    bond_coeff 258  532.8 1.084
    bond_coeff 259  166.0 1.48
    bond_coeff 260  340.0 1.08
    bond_coeff 261  549.0 1.34
    bond_coeff 262  427.0 1.433
    bond_coeff 263  549.0 1.34
    bond_coeff 264  448.0 1.365
    bond_coeff 265  367.0 1.08
    bond_coeff 266  300.0 1.9
    bond_coeff 267  250.0 2.08
    bond_coeff 268  385.0 1.46
    bond_coeff 269  317.0 1.51
    bond_coeff 270  448.0 1.365
    bond_coeff 271  700.0 1.305
    bond_coeff 272  469.0 1.4
    bond_coeff 273  367.0 1.08
    bond_coeff 274  427.0 1.433
    bond_coeff 275  400.0 1.45
    bond_coeff 276  481.0 1.34
    bond_coeff 277  483.0 1.339
    bond_coeff 278  427.0 1.381
    bond_coeff 279  469.0 1.404
    bond_coeff 280  414.0 1.391
    bond_coeff 281  220.0 1.78
    bond_coeff 282  300.0 1.87
    bond_coeff 283  250.0 2.08
    bond_coeff 284  340.0 1.77
    bond_coeff 285  469.0 1.4
    bond_coeff 286  546.0 1.367
    bond_coeff 287  469.0 1.4
    bond_coeff 288  469.0 1.421
    bond_coeff 289  317.0 1.49
    bond_coeff 290  382.0 1.385
    bond_coeff 291  400.0 1.46
    bond_coeff 292  427.0 1.433
    bond_coeff 293  367.0 1.08
    bond_coeff 294  340.0 1.08
    bond_coeff 295  367.0 1.08
    bond_coeff 296  367.0 1.08
    bond_coeff 297  367.0 1.08
    bond_coeff 298  367.0 1.08
    bond_coeff 299  367.0 1.08
    bond_coeff 300  367.0 1.08
    bond_coeff 301  385.0 1.46
    bond_coeff 302  457.0 1.29
    bond_coeff 303  549.0 1.365
    bond_coeff 304  385.0 1.46
    bond_coeff 305  337.0 1.475
    bond_coeff 306  525.0 1.48
    bond_coeff 307  434.0 1.01
    bond_coeff 308  434.0 1.01
    bond_coeff 309  481.0 1.34
    bond_coeff 310  481.0 1.34
    bond_coeff 311  500.0 1.32
    bond_coeff 312  502.0 1.324
    bond_coeff 313  461.0 1.354
    bond_coeff 314  461.0 1.354
    bond_coeff 315  483.0 1.339
    bond_coeff 316  550.0 1.21
    bond_coeff 317  457.0 1.29
    bond_coeff 318  436.0 1.374
    bond_coeff 319  400.0 1.349
    bond_coeff 320  440.0 1.371
    bond_coeff 321  428.0 1.38
    bond_coeff 322  477.0 1.343
    bond_coeff 323  427.0 1.381
    bond_coeff 324  427.0 1.381
    bond_coeff 325  385.0 1.44
    bond_coeff 326  367.0 1.08
    bond_coeff 327  367.0 1.08
    bond_coeff 328  367.0 1.08
    bond_coeff 329  520.0 1.37
    bond_coeff 330  414.0 1.391
    bond_coeff 331  388.0 1.459
    bond_coeff 332  447.0 1.419
    bond_coeff 333  469.0 1.424
    bond_coeff 334  436.0 1.374
    bond_coeff 335  400.0 1.28
    bond_coeff 336  529.0 1.304
    bond_coeff 337  488.0 1.335
    bond_coeff 338  410.0 1.394
    bond_coeff 339  410.0 1.394
    bond_coeff 340  410.0 1.32
    bond_coeff 341  367.0 1.08
    bond_coeff 342  440.0 1.371
    bond_coeff 343  367.0 1.08
    bond_coeff 344  108.0 2.25
    bond_coeff 345  300.0 1.87
    bond_coeff 346  300.0 1.87
    bond_coeff 347  300.0 1.87
    bond_coeff 348  300.0 1.87
    bond_coeff 349  300.0 1.87
    bond_coeff 350  151.0 2.19
    bond_coeff 351  250.0 2.08
    bond_coeff 352  250.0 2.08
    bond_coeff 353  250.0 2.08
    bond_coeff 354  250.0 2.08
    bond_coeff 355  250.0 2.08
    bond_coeff 356  108.0 2.44
    bond_coeff 357  500.0 1.8
    bond_coeff 358  546.0 1.352
    bond_coeff 359  385.0 1.46
    bond_coeff 360  520.0 1.37
    bond_coeff 361  520.0 1.37
    bond_coeff 362  385.0 1.46
    bond_coeff 363  512.0 1.375
    bond_coeff 364  385.0 1.46
    bond_coeff 365  546.0 1.367
    bond_coeff 366  520.0 1.37
    bond_coeff 367  520.0 1.37
    bond_coeff 368  385.0 1.46
    bond_coeff 369  385.0 1.46
    bond_coeff 370  385.0 1.46
    bond_coeff 371  469.0 1.424
    bond_coeff 372  469.0 1.424
    bond_coeff 373  490.0 1.335
    bond_coeff 374  317.0 1.522
    bond_coeff 375  337.0 1.449
    bond_coeff 376  260.0 1.52
    bond_coeff 377  550.0 1.225
    bond_coeff 378  94.0 2.32
    bond_coeff 379  549.0 1.345
    angle_coeff 1  33.0 109.47
    angle_coeff 2  50.0 109.5
    angle_coeff 3  63.0 112.4
    angle_coeff 4  63.0 112.4
    angle_coeff 5  80.0 109.5
    angle_coeff 6  63.0 112.4
    angle_coeff 7  63.0 112.4
    angle_coeff 8  80.0 109.5
    angle_coeff 9  63.0 112.4
    angle_coeff 10  63.0 112.4
    angle_coeff 11  63.0 112.4
    angle_coeff 12  63.0 112.4
    angle_coeff 13  80.0 109.5
    angle_coeff 14  63.0 114.0
    angle_coeff 15  63.0 112.4
    angle_coeff 16  50.0 108.6
    angle_coeff 17  50.0 114.7
    angle_coeff 18  50.0 114.7
    angle_coeff 19  80.0 109.5
    angle_coeff 20  80.0 109.5
    angle_coeff 21  80.0 109.5
    angle_coeff 22  80.0 110.3
    angle_coeff 23  80.0 111.2
    angle_coeff 24  56.2 109.47
    angle_coeff 25  56.2 109.47
    angle_coeff 26  56.2 109.47
    angle_coeff 27  56.2 109.47
    angle_coeff 28  80.0 111.2
    angle_coeff 29  63.0 112.4
    angle_coeff 30  63.0 114.0
    angle_coeff 31  63.0 112.4
    angle_coeff 32  63.0 112.4
    angle_coeff 33  80.0 111.2
    angle_coeff 34  80.0 111.2
    angle_coeff 35  63.0 115.6
    angle_coeff 36  80.0 120.4
    angle_coeff 37  80.0 121.0
    angle_coeff 38  80.0 121.4
    angle_coeff 39  80.0 126.0
    angle_coeff 40  80.0 121.0
    angle_coeff 41  80.0 120.4
    angle_coeff 42  70.0 115.0
    angle_coeff 43  80.0 120.4
    angle_coeff 44  70.0 120.0
    angle_coeff 45  85.0 120.0
    angle_coeff 46  70.0 108.0
    angle_coeff 47  70.0 116.0
    angle_coeff 48  80.0 111.0
    angle_coeff 49  80.0 117.2
    angle_coeff 50  80.0 120.4
    angle_coeff 51  81.0 111.4
    angle_coeff 52  81.0 111.4
    angle_coeff 53  83.0 123.4
    angle_coeff 54  75.0 109.0
    angle_coeff 55  75.0 119.0
    angle_coeff 56  70.0 114.2
    angle_coeff 57  70.0 116.6
    angle_coeff 58  70.0 116.6
    angle_coeff 59  70.0 116.6
    angle_coeff 60  70.0 116.6
    angle_coeff 61  70.0 116.6
    angle_coeff 62  80.0 122.9
    angle_coeff 63  81.0 111.4
    angle_coeff 64  70.0 116.0
    angle_coeff 65  80.0 120.4
    angle_coeff 66  35.0 115.0
    angle_coeff 67  35.0 115.0
    angle_coeff 68  35.0 123.0
    angle_coeff 69  40.0 114.0
    angle_coeff 70  40.0 115.0
    angle_coeff 71  40.0 115.0
    angle_coeff 72  70.0 115.5
    angle_coeff 73  80.0 125.3
    angle_coeff 74  35.0 115.0
    angle_coeff 75  70.0 115.5
    angle_coeff 76  70.0 116.0
    angle_coeff 77  70.0 120.0
    angle_coeff 78  80.0 120.4
    angle_coeff 79  81.0 111.4
    angle_coeff 80  85.0 120.0
    angle_coeff 81  70.0 116.0
    angle_coeff 82  80.0 116.0
    angle_coeff 83  80.0 124.0
    angle_coeff 84  65.0 117.0
    angle_coeff 85  70.0 117.0
    angle_coeff 86  70.0 117.0
    angle_coeff 87  70.0 117.0
    angle_coeff 88  70.0 117.0
    angle_coeff 89  80.0 126.0
    angle_coeff 90  80.0 126.0
    angle_coeff 91  35.0 122.0
    angle_coeff 92  80.0 122.5
    angle_coeff 93  70.0 114.1
    angle_coeff 94  70.0 118.6
    angle_coeff 95  70.0 118.6
    angle_coeff 96  80.0 120.6
    angle_coeff 97  70.0 111.3
    angle_coeff 98  70.0 111.3
    angle_coeff 99  80.0 128.8
    angle_coeff 100  75.0 109.0
    angle_coeff 101  75.0 119.0
    angle_coeff 102  70.0 116.0
    angle_coeff 103  80.0 120.4
    angle_coeff 104  80.0 128.2
    angle_coeff 105  70.0 115.4
    angle_coeff 106  70.0 118.6
    angle_coeff 107  80.0 120.9
    angle_coeff 108  70.0 116.6
    angle_coeff 109  80.0 122.9
    angle_coeff 110  10.0 117.0
    angle_coeff 111  35.0 113.0
    angle_coeff 112  35.0 113.0
    angle_coeff 113  55.0 108.5
    angle_coeff 114  55.0 108.5
    angle_coeff 115  55.0 108.5
    angle_coeff 116  55.0 108.5
    angle_coeff 117  49.0 105.4
    angle_coeff 118  5.0 109.47
    angle_coeff 119  10.0 109.47
    angle_coeff 120  10.0 109.47
    angle_coeff 121  35.0 109.0
    angle_coeff 122  10.0 109.47
    angle_coeff 123  35.0 113.0
    angle_coeff 124  55.0 108.5
    angle_coeff 125  55.0 108.5
    angle_coeff 126  100.0 120.5
    angle_coeff 127  74.0 110.0
    angle_coeff 128  100.0 126.0
    angle_coeff 129  10.0 109.47
    angle_coeff 130  33.0 109.47
    angle_coeff 131  63.0 112.4
    angle_coeff 132  63.0 111.1
    angle_coeff 133  80.0 109.5
    angle_coeff 134  63.0 111.1
    angle_coeff 135  63.0 111.5
    angle_coeff 136  63.0 112.4
    angle_coeff 137  80.0 109.5
    angle_coeff 138  63.0 111.1
    angle_coeff 139  63.0 111.5
    angle_coeff 140  63.0 111.5
    angle_coeff 141  63.0 111.5
    angle_coeff 142  80.0 109.5
    angle_coeff 143  80.0 109.5
    angle_coeff 144  80.0 109.5
    angle_coeff 145  80.0 109.5
    angle_coeff 146  63.0 110.1
    angle_coeff 147  80.0 109.5
    angle_coeff 148  80.0 109.7
    angle_coeff 149  80.0 109.7
    angle_coeff 150  56.2 109.47
    angle_coeff 151  56.2 109.47
    angle_coeff 152  56.2 109.47
    angle_coeff 153  56.2 109.47
    angle_coeff 154  80.0 109.7
    angle_coeff 155  63.0 112.4
    angle_coeff 156  80.0 109.5
    angle_coeff 157  80.0 109.5
    angle_coeff 158  80.0 109.5
    angle_coeff 159  80.0 109.5
    angle_coeff 160  70.0 124.0
    angle_coeff 161  70.0 124.0
    angle_coeff 162  70.0 124.0
    angle_coeff 163  70.0 118.0
    angle_coeff 164  70.0 118.0
    angle_coeff 165  70.0 118.0
    angle_coeff 166  70.0 124.0
    angle_coeff 167  70.0 124.0
    angle_coeff 168  70.0 124.0
    angle_coeff 169  70.0 118.0
    angle_coeff 170  70.0 118.0
    angle_coeff 171  70.0 118.0
    angle_coeff 172  70.0 118.0
    angle_coeff 173  70.0 118.0
    angle_coeff 174  70.0 118.0
    angle_coeff 175  70.0 118.0
    angle_coeff 176  70.0 124.0
    angle_coeff 177  70.0 124.0
    angle_coeff 178  70.0 124.0
    angle_coeff 179  70.0 124.0
    angle_coeff 180  70.0 118.0
    angle_coeff 181  70.0 118.0
    angle_coeff 182  70.0 118.0
    angle_coeff 183  70.0 120.0
    angle_coeff 184  85.0 120.0
    angle_coeff 185  85.0 120.0
    angle_coeff 186  85.0 120.0
    angle_coeff 187  85.0 120.0
    angle_coeff 188  85.0 120.0
    angle_coeff 189  77.0 109.1
    angle_coeff 190  40.0 109.5
    angle_coeff 191  50.0 109.5
    angle_coeff 192  63.0 111.1
    angle_coeff 193  63.0 111.1
    angle_coeff 194  40.0 109.5
    angle_coeff 195  40.0 109.5
    angle_coeff 196  63.0 109.5
    angle_coeff 197  50.0 109.5
    angle_coeff 198  50.0 109.5
    angle_coeff 199  58.35 112.7
    angle_coeff 200  63.0 111.1
    angle_coeff 201  50.0 108.6
    angle_coeff 202  50.0 114.7
    angle_coeff 203  58.35 112.7
    angle_coeff 204  50.0 109.5
    angle_coeff 205  50.0 109.5
    angle_coeff 206  69.0 109.8
    angle_coeff 207  69.0 109.8
    angle_coeff 208  78.0 111.7
    angle_coeff 209  50.0 108.6
    angle_coeff 210  50.0 109.5
    angle_coeff 211  63.0 110.1
    angle_coeff 212  80.0 109.7
    angle_coeff 213  80.0 109.7
    angle_coeff 214  50.0 114.7
    angle_coeff 215  56.2 109.47
    angle_coeff 216  56.2 109.47
    angle_coeff 217  56.2 109.47
    angle_coeff 218  56.2 109.47
    angle_coeff 219  80.0 111.2
    angle_coeff 220  33.0 107.8
    angle_coeff 221  35.0 108.5
    angle_coeff 222  35.0 108.5
    angle_coeff 223  35.0 109.5
    angle_coeff 224  35.0 109.5
    angle_coeff 225  35.0 109.5
    angle_coeff 226  35.0 109.5
    angle_coeff 227  35.0 109.5
    angle_coeff 228  35.0 109.5
    angle_coeff 229  35.0 109.5
    angle_coeff 230  35.0 109.5
    angle_coeff 231  35.0 109.5
    angle_coeff 232  37.5 110.7
    angle_coeff 233  40.0 107.0
    angle_coeff 234  51.0 107.6
    angle_coeff 235  35.0 109.5
    angle_coeff 236  50.0 109.5
    angle_coeff 237  63.0 111.1
    angle_coeff 238  63.0 112.4
    angle_coeff 239  35.0 109.5
    angle_coeff 240  40.0 109.5
    angle_coeff 241  40.0 109.5
    angle_coeff 242  50.0 109.5
    angle_coeff 243  50.0 109.5
    angle_coeff 244  50.0 109.5
    angle_coeff 245  50.0 114.7
    angle_coeff 246  63.0 112.0
    angle_coeff 247  63.0 114.0
    angle_coeff 248  63.0 114.0
    angle_coeff 249  80.0 111.2
    angle_coeff 250  35.0 109.5
    angle_coeff 251  37.5 110.7
    angle_coeff 252  50.0 109.5
    angle_coeff 253  58.35 112.7
    angle_coeff 254  35.0 109.5
    angle_coeff 255  80.0 111.2
    angle_coeff 256  80.0 111.2
    angle_coeff 257  35.0 109.5
    angle_coeff 258  80.0 111.2
    angle_coeff 259  35.0 109.5
    angle_coeff 260  63.0 110.1
    angle_coeff 261  65.0 109.0
    angle_coeff 262  35.0 109.5
    angle_coeff 263  80.0 111.2
    angle_coeff 264  35.0 109.5
    angle_coeff 265  63.0 114.0
    angle_coeff 266  41.0 109.5
    angle_coeff 267  43.0 109.5
    angle_coeff 268  43.0 109.5
    angle_coeff 269  51.0 107.6
    angle_coeff 270  69.0 109.8
    angle_coeff 271  69.0 110.0
    angle_coeff 272  69.0 110.0
    angle_coeff 273  78.0 111.7
    angle_coeff 274  75.0 111.0
    angle_coeff 275  75.0 112.0
    angle_coeff 276  35.0 109.5
    angle_coeff 277  50.0 108.6
    angle_coeff 278  50.0 109.5
    angle_coeff 279  35.0 109.5
    angle_coeff 280  63.0 115.6
    angle_coeff 281  35.0 109.5
    angle_coeff 282  63.0 114.0
    angle_coeff 283  35.0 109.5
    angle_coeff 284  50.0 114.7
    angle_coeff 285  63.0 114.0
    angle_coeff 286  35.0 109.5
    angle_coeff 287  63.0 114.0
    angle_coeff 288  35.0 109.5
    angle_coeff 289  63.0 115.6
    angle_coeff 290  35.0 109.5
    angle_coeff 291  80.0 110.0
    angle_coeff 292  80.0 113.0
    angle_coeff 293  37.5 110.7
    angle_coeff 294  35.0 105.0
    angle_coeff 295  63.0 105.0
    angle_coeff 296  35.0 109.5
    angle_coeff 297  80.0 111.2
    angle_coeff 298  35.0 105.0
    angle_coeff 299  63.0 111.1
    angle_coeff 300  41.0 109.5
    angle_coeff 301  43.0 109.5
    angle_coeff 302  35.0 109.5
    angle_coeff 303  50.0 109.5
    angle_coeff 304  50.0 109.5
    angle_coeff 305  35.0 109.5
    angle_coeff 306  80.0 109.7
    angle_coeff 307  35.0 109.5
    angle_coeff 308  60.0 112.0
    angle_coeff 309  70.0 124.0
    angle_coeff 310  70.0 124.0
    angle_coeff 311  70.0 124.0
    angle_coeff 312  70.0 118.0
    angle_coeff 313  70.0 118.0
    angle_coeff 314  70.0 118.0
    angle_coeff 315  70.0 124.0
    angle_coeff 316  70.0 124.0
    angle_coeff 317  70.0 124.0
    angle_coeff 318  70.0 118.0
    angle_coeff 319  70.0 118.0
    angle_coeff 320  70.0 118.0
    angle_coeff 321  70.0 118.0
    angle_coeff 322  70.0 118.0
    angle_coeff 323  70.0 118.0
    angle_coeff 324  70.0 118.0
    angle_coeff 325  70.0 124.0
    angle_coeff 326  70.0 124.0
    angle_coeff 327  70.0 124.0
    angle_coeff 328  70.0 124.0
    angle_coeff 329  70.0 118.0
    angle_coeff 330  70.0 118.0
    angle_coeff 331  70.0 118.0
    angle_coeff 332  70.0 118.0
    angle_coeff 333  70.0 118.0
    angle_coeff 334  70.0 118.0
    angle_coeff 335  70.0 118.0
    angle_coeff 336  35.0 92.07
    angle_coeff 337  44.0 96.0
    angle_coeff 338  44.0 96.0
    angle_coeff 339  44.0 96.0
    angle_coeff 340  5.0 109.47
    angle_coeff 341  10.0 109.47
    angle_coeff 342  10.0 160.0
    angle_coeff 343  150.0 96.7
    angle_coeff 344  150.0 96.7
    angle_coeff 345  150.0 96.7
    angle_coeff 346  150.0 96.7
    angle_coeff 347  50.0 96.0
    angle_coeff 348  62.0 98.9
    angle_coeff 349  62.0 98.9
    angle_coeff 350  68.0 103.7
    angle_coeff 351  68.0 103.7
    angle_coeff 352  68.0 103.7
    angle_coeff 353  65.0 100.0
    angle_coeff 354  5.0 109.47
    angle_coeff 355  10.0 109.47
    angle_coeff 356  10.0 160.0
    angle_coeff 357  150.0 96.7
    angle_coeff 358  150.0 96.7
    angle_coeff 359  150.0 96.7
    angle_coeff 360  150.0 96.7
    angle_coeff 361  62.0 104.2
    angle_coeff 362  62.0 104.2
    angle_coeff 363  74.0 92.4
    angle_coeff 364  10.0 130.0
    angle_coeff 365  10.0 130.0
    angle_coeff 366  74.0 97.0
    angle_coeff 367  10.0 130.0
    angle_coeff 368  74.0 90.0
    angle_coeff 369  74.0 97.0
    angle_coeff 370  74.0 97.0
    angle_coeff 371  62.0 94.0
    angle_coeff 372  10.0 109.47
    angle_coeff 373  33.0 109.47
    angle_coeff 374  150.0 180.0
    angle_coeff 375  170.0 180.0
    angle_coeff 376  100.0 180.0
    angle_coeff 377  150.0 180.0
    angle_coeff 378  140.0 180.0
    angle_coeff 379  150.0 180.0
    angle_coeff 380  10.0 90.0
    angle_coeff 381  112.0 180.0
    angle_coeff 382  150.0 180.0
    angle_coeff 383  160.0 180.0
    angle_coeff 384  150.0 180.0
    angle_coeff 385  160.0 180.0
    angle_coeff 386  160.0 180.0
    angle_coeff 387  150.0 180.0
    angle_coeff 388  150.0 180.0
    angle_coeff 389  100.0 111.8
    angle_coeff 390  83.0 116.9
    angle_coeff 391  83.0 116.9
    angle_coeff 392  100.0 111.8
    angle_coeff 393  55.0 108.5
    angle_coeff 394  55.0 108.5
    angle_coeff 395  83.0 116.9
    angle_coeff 396  100.0 111.8
    angle_coeff 397  60.0 109.5
    angle_coeff 398  83.0 116.9
    angle_coeff 399  5.0 109.47
    angle_coeff 400  10.0 109.47
    angle_coeff 401  75.0 111.0
    angle_coeff 402  10.0 109.47
    angle_coeff 403  75.0 111.0
    angle_coeff 404  75.0 111.0
    angle_coeff 405  75.0 111.0
    angle_coeff 406  83.0 116.9
    angle_coeff 407  100.0 111.8
    angle_coeff 408  60.0 109.5
    angle_coeff 409  100.0 113.0
    angle_coeff 410  100.0 113.0
    angle_coeff 411  100.0 113.0
    angle_coeff 412  70.0 104.5
    angle_coeff 413  10.0 125.0
    angle_coeff 414  100.0 120.5
    angle_coeff 415  100.0 120.5
    angle_coeff 416  100.0 120.5
    angle_coeff 417  100.0 120.5
    angle_coeff 418  100.0 120.5
    angle_coeff 419  100.0 120.5
    angle_coeff 420  10.0 125.0
    angle_coeff 421  70.0 106.5
    angle_coeff 422  70.0 107.0
    angle_coeff 423  10.0 125.0
    angle_coeff 424  70.0 104.0
    angle_coeff 425  70.0 106.5
    angle_coeff 426  70.0 106.5
    angle_coeff 427  70.0 108.9
    angle_coeff 428  20.0 145.0
    angle_coeff 429  40.0 130.0
    angle_coeff 430  33.0 109.47
    angle_coeff 431  62.0 96.0
    angle_coeff 432  74.0 107.0
    angle_coeff 433  10.0 90.0
    angle_coeff 434  50.0 121.9
    angle_coeff 435  70.0 126.4
    angle_coeff 436  46.0 115.7
    angle_coeff 437  50.0 121.9
    angle_coeff 438  50.0 121.9
    angle_coeff 439  50.0 118.0
    angle_coeff 440  50.0 121.9
    angle_coeff 441  50.0 118.0
    angle_coeff 442  50.0 121.9
    angle_coeff 443  70.0 112.0
    angle_coeff 444  70.0 108.6
    angle_coeff 445  10.0 109.5
    angle_coeff 446  10.0 100.0
    angle_coeff 447  35.0 110.2
    angle_coeff 448  35.0 119.8
    angle_coeff 449  35.0 120.0
    angle_coeff 450  38.0 118.4
    angle_coeff 451  38.0 118.4
    angle_coeff 452  38.0 118.4
    angle_coeff 453  38.0 118.4
    angle_coeff 454  35.0 119.8
    angle_coeff 455  50.0 118.0
    angle_coeff 456  50.0 121.9
    angle_coeff 457  70.0 118.0
    angle_coeff 458  35.0 120.0
    angle_coeff 459  35.0 118.0
    angle_coeff 460  70.0 125.2
    angle_coeff 461  50.0 120.0
    angle_coeff 462  100.0 111.0
    angle_coeff 463  35.0 119.8
    angle_coeff 464  70.0 118.0
    angle_coeff 465  70.0 117.0
    angle_coeff 466  35.0 119.8
    angle_coeff 467  70.0 118.0
    angle_coeff 468  35.0 119.8
    angle_coeff 469  70.0 118.0
    angle_coeff 470  40.0 113.0
    angle_coeff 471  55.0 128.0
    angle_coeff 472  70.0 121.0
    angle_coeff 473  20.0 126.0
    angle_coeff 474  33.0 109.47
    angle_coeff 475  75.0 104.52
    angle_coeff 476  50.0 52.26
    angle_coeff 477  34.05 104.52
    angle_coeff 478  75.0 109.5
    angle_coeff 479  50.0 54.75
    angle_coeff 480  75.0 104.52
    angle_coeff 481  50.0 109.47
    angle_coeff 482  50.0 110.6948
    angle_coeff 483  75.0 109.47
    angle_coeff 484  51.8 107.2
    angle_coeff 485  51.8 107.2
    angle_coeff 486  51.8 107.2
    angle_coeff 487  51.8 107.2
    angle_coeff 488  51.8 107.2
    angle_coeff 489  51.8 107.2
    angle_coeff 490  51.8 107.2
    angle_coeff 491  51.8 107.2
    angle_coeff 492  51.8 107.2
    angle_coeff 493  51.8 107.2
    angle_coeff 494  63.0 111.1
    angle_coeff 495  10.0 100.0
    angle_coeff 496  35.0 109.5
    angle_coeff 497  43.2 108.1
    angle_coeff 498  43.2 108.1
    angle_coeff 499  43.2 108.1
    angle_coeff 500  43.6 106.4
    angle_coeff 501  10.0 109.5
    angle_coeff 502  35.0 116.0
    angle_coeff 503  50.0 116.0
    angle_coeff 504  50.0 116.0
    angle_coeff 505  63.0 112.0
    angle_coeff 506  35.0 115.0
    angle_coeff 507  50.0 108.6
    angle_coeff 508  50.0 108.6
    angle_coeff 509  50.0 109.5
    angle_coeff 510  33.0 109.47
    angle_coeff 511  10.0 109.5
    angle_coeff 512  33.0 109.47
    angle_coeff 513  37.5 109.47
    angle_coeff 514  80.0 108.0
    angle_coeff 515  80.0 121.5
    angle_coeff 516  85.0 119.7
    angle_coeff 517  70.0 119.7
    angle_coeff 518  70.0 130.0
    angle_coeff 519  10.0 90.0
    angle_coeff 520  35.0 114.5
    angle_coeff 521  35.0 117.0
    angle_coeff 522  35.0 117.0
    angle_coeff 523  35.0 119.7
    angle_coeff 524  35.0 120.0
    angle_coeff 525  50.0 112.0
    angle_coeff 526  60.0 114.0
    angle_coeff 527  2.0 90.0
    angle_coeff 528  35.0 120.0
    angle_coeff 529  70.0 123.0
    angle_coeff 530  70.0 123.0
    angle_coeff 531  70.0 124.0
    angle_coeff 532  70.0 124.0
    angle_coeff 533  75.0 121.5
    angle_coeff 534  80.0 121.5
    angle_coeff 535  85.0 119.4
    angle_coeff 536  85.0 120.7
    angle_coeff 537  35.0 123.3
    angle_coeff 538  85.0 117.0
    angle_coeff 539  85.0 119.7
    angle_coeff 540  2.0 90.0
    angle_coeff 541  35.0 120.0
    angle_coeff 542  70.0 123.0
    angle_coeff 543  70.0 123.0
    angle_coeff 544  70.0 124.0
    angle_coeff 545  35.0 119.1
    angle_coeff 546  70.0 120.0
    angle_coeff 547  70.0 120.0
    angle_coeff 548  70.0 121.2
    angle_coeff 549  85.0 119.4
    angle_coeff 550  35.0 119.1
    angle_coeff 551  35.0 119.7
    angle_coeff 552  60.0 114.0
    angle_coeff 553  75.0 120.0
    angle_coeff 554  35.0 135.0
    angle_coeff 555  70.0 119.7
    angle_coeff 556  70.0 124.0
    angle_coeff 557  35.0 119.1
    angle_coeff 558  35.0 119.1
    angle_coeff 559  70.0 120.0
    angle_coeff 560  70.0 120.0
    angle_coeff 561  70.0 121.2
    angle_coeff 562  85.0 119.4
    angle_coeff 563  40.0 121.0
    angle_coeff 564  80.0 122.0
    angle_coeff 565  80.0 122.0
    angle_coeff 566  80.0 125.0
    angle_coeff 567  70.0 120.0
    angle_coeff 568  85.0 120.0
    angle_coeff 569  70.0 119.7
    angle_coeff 570  10.0 90.0
    angle_coeff 571  63.0 120.0
    angle_coeff 572  70.0 120.0
    angle_coeff 573  70.0 120.0
    angle_coeff 574  70.0 120.0
    angle_coeff 575  70.0 120.0
    angle_coeff 576  70.0 120.0
    angle_coeff 577  70.0 120.0
    angle_coeff 578  70.0 120.0
    angle_coeff 579  70.0 120.0
    angle_coeff 580  70.0 120.0
    angle_coeff 581  70.0 124.0
    angle_coeff 582  75.0 120.0
    angle_coeff 583  80.0 120.0
    angle_coeff 584  80.0 120.0
    angle_coeff 585  85.0 119.4
    angle_coeff 586  85.0 120.0
    angle_coeff 587  2.0 90.0
    angle_coeff 588  35.0 119.1
    angle_coeff 589  35.0 120.0
    angle_coeff 590  35.0 120.0
    angle_coeff 591  70.0 124.0
    angle_coeff 592  70.0 120.0
    angle_coeff 593  70.0 120.0
    angle_coeff 594  70.0 120.1
    angle_coeff 595  70.0 120.1
    angle_coeff 596  35.0 116.0
    angle_coeff 597  70.0 116.0
    angle_coeff 598  70.0 116.0
    angle_coeff 599  70.0 119.3
    angle_coeff 600  70.0 120.0
    angle_coeff 601  70.0 121.5
    angle_coeff 602  70.0 121.5
    angle_coeff 603  70.0 124.0
    angle_coeff 604  75.0 120.0
    angle_coeff 605  35.0 120.0
    angle_coeff 606  70.0 108.7
    angle_coeff 607  70.0 116.0
    angle_coeff 608  70.0 120.0
    angle_coeff 609  70.0 121.5
    angle_coeff 610  70.0 123.3
    angle_coeff 611  35.0 120.0
    angle_coeff 612  63.0 120.0
    angle_coeff 613  70.0 108.7
    angle_coeff 614  70.0 117.3
    angle_coeff 615  70.0 123.5
    angle_coeff 616  70.0 128.6
    angle_coeff 617  70.0 128.6
    angle_coeff 618  35.0 119.1
    angle_coeff 619  70.0 108.7
    angle_coeff 620  70.0 123.3
    angle_coeff 621  85.0 119.4
    angle_coeff 622  75.0 120.0
    angle_coeff 623  75.0 120.0
    angle_coeff 624  85.0 119.4
    angle_coeff 625  35.0 120.0
    angle_coeff 626  85.0 120.0
    angle_coeff 627  35.0 126.9
    angle_coeff 628  63.0 106.4
    angle_coeff 629  70.0 107.4
    angle_coeff 630  35.0 120.0
    angle_coeff 631  63.0 120.0
    angle_coeff 632  70.0 124.0
    angle_coeff 633  35.0 128.2
    angle_coeff 634  70.0 111.8
    angle_coeff 635  70.0 124.1
    angle_coeff 636  85.0 120.0
    angle_coeff 637  70.0 124.0
    angle_coeff 638  10.0 90.0
    angle_coeff 639  35.0 120.0
    angle_coeff 640  2.0 90.0
    angle_coeff 641  35.0 120.0
    angle_coeff 642  70.0 118.7
    angle_coeff 643  70.0 124.0
    angle_coeff 644  35.0 123.3
    angle_coeff 645  85.0 117.0
    angle_coeff 646  2.0 90.0
    angle_coeff 647  35.0 120.0
    angle_coeff 648  70.0 124.0
    angle_coeff 649  70.0 124.0
    angle_coeff 650  35.0 106.0
    angle_coeff 651  35.0 122.0
    angle_coeff 652  35.0 120.0
    angle_coeff 653  70.0 124.0
    angle_coeff 654  70.0 124.0
    angle_coeff 655  40.0 109.5
    angle_coeff 656  50.0 109.5
    angle_coeff 657  50.0 109.5
    angle_coeff 658  80.0 109.5
    angle_coeff 659  80.0 109.5
    angle_coeff 660  92.6 111.55
    angle_coeff 661  92.6 111.55
    angle_coeff 662  33.0 109.5
    angle_coeff 663  35.0 109.5
    angle_coeff 664  35.0 109.5
    angle_coeff 665  37.5 110.7
    angle_coeff 666  35.0 109.5
    angle_coeff 667  50.0 109.5
    angle_coeff 668  50.0 109.5
    angle_coeff 669  50.0 113.0
    angle_coeff 670  10.0 100.0
    angle_coeff 671  43.6 109.5
    angle_coeff 672  10.0 100.0
    angle_coeff 673  55.0 114.0
    angle_coeff 674  35.0 109.5
    angle_coeff 675  35.0 109.5
    angle_coeff 676  35.0 109.5
    angle_coeff 677  35.0 109.5
    angle_coeff 678  35.0 109.5
    angle_coeff 679  10.0 100.0
    angle_coeff 680  50.0 118.0
    angle_coeff 681  35.0 113.0
    angle_coeff 682  35.0 118.4
    angle_coeff 683  35.0 120.0
    angle_coeff 684  50.0 123.2
    angle_coeff 685  50.0 123.2
    angle_coeff 686  50.0 123.2
    angle_coeff 687  35.0 118.4
    angle_coeff 688  35.0 118.4
    angle_coeff 689  35.0 120.0
    angle_coeff 690  35.0 120.0
    angle_coeff 691  35.0 120.0
    angle_coeff 692  70.0 120.5
    angle_coeff 693  70.0 120.0
    angle_coeff 694  5.0 120.0
    angle_coeff 695  35.0 113.0
    angle_coeff 696  50.0 118.0
    angle_coeff 697  70.0 117.0
    angle_coeff 698  70.0 120.5
    angle_coeff 699  70.0 117.0
    angle_coeff 700  70.0 117.0
    angle_coeff 701  5.0 119.8
    angle_coeff 702  70.0 118.6
    angle_coeff 703  70.0 118.6
    angle_coeff 704  70.0 111.0
    angle_coeff 705  70.0 112.2
    angle_coeff 706  70.0 111.0
    angle_coeff 707  70.0 117.0
    angle_coeff 708  70.0 114.0
    angle_coeff 709  70.0 126.4
    angle_coeff 710  35.0 116.8
    angle_coeff 711  35.0 119.2
    angle_coeff 712  70.0 121.6
    angle_coeff 713  35.0 118.0
    angle_coeff 714  70.0 125.2
    angle_coeff 715  70.0 125.2
    angle_coeff 716  30.0 125.8
    angle_coeff 717  70.0 125.8
    angle_coeff 718  56.0 113.1
    angle_coeff 719  56.0 118.4
    angle_coeff 720  70.0 118.4
    angle_coeff 721  70.0 118.4
    angle_coeff 722  30.0 128.8
    angle_coeff 723  70.0 105.4
    angle_coeff 724  70.0 109.8
    angle_coeff 725  70.0 128.8
    angle_coeff 726  35.0 123.1
    angle_coeff 727  35.0 120.0
    angle_coeff 728  56.0 113.1
    angle_coeff 729  70.0 109.8
    angle_coeff 730  35.0 120.0
    angle_coeff 731  56.0 113.1
    angle_coeff 732  70.0 109.8
    angle_coeff 733  70.0 109.8
    angle_coeff 734  70.0 109.8
    angle_coeff 735  70.0 111.6
    angle_coeff 736  35.0 120.0
    angle_coeff 737  70.0 109.8
    angle_coeff 738  70.0 116.0
    angle_coeff 739  35.0 115.45
    angle_coeff 740  70.0 115.5
    angle_coeff 741  70.0 119.3
    angle_coeff 742  70.0 123.3
    angle_coeff 743  70.0 129.1
    angle_coeff 744  35.0 115.45
    angle_coeff 745  70.0 120.0
    angle_coeff 746  85.0 134.9
    angle_coeff 747  70.0 126.2
    angle_coeff 748  70.0 106.2
    angle_coeff 749  70.0 110.6
    angle_coeff 750  70.0 111.0
    angle_coeff 751  70.0 120.0
    angle_coeff 752  70.0 127.7
    angle_coeff 753  70.0 127.7
    angle_coeff 754  85.0 117.3
    angle_coeff 755  85.0 119.2
    angle_coeff 756  70.0 111.0
    angle_coeff 757  70.0 126.2
    angle_coeff 758  70.0 130.0
    angle_coeff 759  70.0 132.4
    angle_coeff 760  85.0 134.9
    angle_coeff 761  85.0 134.9
    angle_coeff 762  85.0 108.8
    angle_coeff 763  85.0 116.2
    angle_coeff 764  85.0 116.2
    angle_coeff 765  70.0 130.0
    angle_coeff 766  70.0 107.3
    angle_coeff 767  70.0 107.7
    angle_coeff 768  85.0 108.8
    angle_coeff 769  85.0 134.9
    angle_coeff 770  85.0 134.9
    angle_coeff 771  70.0 106.2
    angle_coeff 772  70.0 126.2
    angle_coeff 773  70.0 125.2
    angle_coeff 774  10.0 125.0
    angle_coeff 775  10.0 125.0
    angle_coeff 776  70.0 103.8
    angle_coeff 777  10.0 125.0
    angle_coeff 778  70.0 109.0
    angle_coeff 779  70.0 110.0
    angle_coeff 780  70.0 110.0
    angle_coeff 781  70.0 104.1
    angle_coeff 782  70.0 110.0
    angle_coeff 783  70.0 104.1
    angle_coeff 784  70.0 105.3
    angle_coeff 785  35.0 120.0
    angle_coeff 786  35.0 120.0
    angle_coeff 787  70.0 113.9
    angle_coeff 788  35.0 123.05
    angle_coeff 789  35.0 123.05
    angle_coeff 790  35.0 120.0
    angle_coeff 791  35.0 123.05
    angle_coeff 792  70.0 113.9
    angle_coeff 793  45.0 102.6
    angle_coeff 794  100.0 108.23
    angle_coeff 795  45.0 109.5
    angle_coeff 796  45.0 102.6
    angle_coeff 797  45.0 102.6
    angle_coeff 798  45.0 109.5
    angle_coeff 799  100.0 108.23
    angle_coeff 800  45.0 109.5
    angle_coeff 801  45.0 109.5
    angle_coeff 802  45.0 109.5
    angle_coeff 803  45.0 108.23
    angle_coeff 804  45.0 109.5
    angle_coeff 805  100.0 108.23
    angle_coeff 806  140.0 119.9
    angle_coeff 807  33.0 109.47
    angle_coeff 808  33.0 109.47
    angle_coeff 809  150.0 180.0
    angle_coeff 810  62.0 98.9
    angle_coeff 811  62.0 102.0
    angle_coeff 812  75.0 96.4
    angle_coeff 813  74.0 108.7
    angle_coeff 814  74.0 108.9
    angle_coeff 815  104.0 119.0
    angle_coeff 816  100.0 103.0
    angle_coeff 817  120.0 107.0
    angle_coeff 818  62.0 102.0
    angle_coeff 819  74.0 108.9
    angle_coeff 820  62.0 102.0
    angle_coeff 821  74.0 107.2
    angle_coeff 822  75.0 96.4
    angle_coeff 823  100.0 103.0
    angle_coeff 824  62.0 102.0
    angle_coeff 825  35.0 126.8
    angle_coeff 826  70.0 128.6
    angle_coeff 827  70.0 128.6
    angle_coeff 828  35.0 126.8
    angle_coeff 829  70.0 125.0
    angle_coeff 830  70.0 125.0
    angle_coeff 831  85.0 106.4
    angle_coeff 832  70.0 132.8
    angle_coeff 833  70.0 132.8
    angle_coeff 834  70.0 104.4
    angle_coeff 835  85.0 122.7
    angle_coeff 836  85.0 122.7
    angle_coeff 837  70.0 125.0
    angle_coeff 838  70.0 125.0
    angle_coeff 839  70.0 120.2
    angle_coeff 840  35.0 117.0
    angle_coeff 841  35.0 125.0
    angle_coeff 842  35.0 120.0
    angle_coeff 843  70.0 120.0
    angle_coeff 844  70.0 125.0
    angle_coeff 845  70.0 125.0
    angle_coeff 846  70.0 126.2
    angle_coeff 847  35.0 120.0
    angle_coeff 848  70.0 115.0
    angle_coeff 849  70.0 115.0
    angle_coeff 850  70.0 120.0
    angle_coeff 851  70.0 125.0
    angle_coeff 852  70.0 126.1
    angle_coeff 853  70.0 126.2
    angle_coeff 854  70.0 120.0
    angle_coeff 855  70.0 120.0
    angle_coeff 856  70.0 122.0
    angle_coeff 857  70.0 130.0
    angle_coeff 858  70.0 106.2
    angle_coeff 859  70.0 127.7
    angle_coeff 860  35.0 120.0
    angle_coeff 861  70.0 111.0
    angle_coeff 862  70.0 124.5
    angle_coeff 863  35.0 128.2
    angle_coeff 864  70.0 111.0
    angle_coeff 865  70.0 130.7
    angle_coeff 866  70.0 125.0
    angle_coeff 867  70.0 121.6
    angle_coeff 868  70.0 125.0
    angle_coeff 869  35.0 113.4
    angle_coeff 870  35.0 125.0
    angle_coeff 871  35.0 130.7
    angle_coeff 872  35.0 130.7
    angle_coeff 873  70.0 110.0
    angle_coeff 874  35.0 121.6
    angle_coeff 875  70.0 121.6
    angle_coeff 876  70.0 121.6
    angle_coeff 877  85.0 120.0
    angle_coeff 878  35.0 120.0
    angle_coeff 879  70.0 118.9
    angle_coeff 880  35.0 120.0
    angle_coeff 881  70.0 108.7
    angle_coeff 882  35.0 130.7
    angle_coeff 883  70.0 106.3
    angle_coeff 884  70.0 108.0
    angle_coeff 885  70.0 111.0
    angle_coeff 886  70.0 130.7
    angle_coeff 887  70.0 120.0
    angle_coeff 888  70.0 120.0
    angle_coeff 889  70.0 120.0
    angle_coeff 890  70.0 121.6
    angle_coeff 891  70.0 121.6
    angle_coeff 892  35.0 132.1
    angle_coeff 893  70.0 107.7
    angle_coeff 894  70.0 110.6
    angle_coeff 895  70.0 111.0
    angle_coeff 896  70.0 111.9
    angle_coeff 897  70.0 132.1
    angle_coeff 898  70.0 132.1
    angle_coeff 899  70.0 132.1
    angle_coeff 900  85.0 120.0
    angle_coeff 901  35.0 120.0
    angle_coeff 902  70.0 121.6
    angle_coeff 903  35.0 130.7
    angle_coeff 904  70.0 106.3
    angle_coeff 905  70.0 130.7
    angle_coeff 906  63.0 120.0
    angle_coeff 907  70.0 124.0
    angle_coeff 908  63.0 120.0
    angle_coeff 909  63.0 120.0
    angle_coeff 910  63.0 120.0
    angle_coeff 911  63.0 120.0
    angle_coeff 912  70.0 124.0
    angle_coeff 913  63.0 120.0
    angle_coeff 914  63.0 120.0
    angle_coeff 915  35.0 120.0
    angle_coeff 916  35.0 126.8
    angle_coeff 917  70.0 128.6
    angle_coeff 918  35.0 125.7
    angle_coeff 919  35.0 126.8
    angle_coeff 920  70.0 103.8
    angle_coeff 921  70.0 110.4
    angle_coeff 922  70.0 125.0
    angle_coeff 923  70.0 125.0
    angle_coeff 924  70.0 130.0
    angle_coeff 925  85.0 106.4
    angle_coeff 926  70.0 125.7
    angle_coeff 927  35.0 127.5
    angle_coeff 928  70.0 107.3
    angle_coeff 929  70.0 107.3
    angle_coeff 930  70.0 127.5
    angle_coeff 931  70.0 103.8
    angle_coeff 932  35.0 128.6
    angle_coeff 933  35.0 118.9
    angle_coeff 934  70.0 118.9
    angle_coeff 935  70.0 118.9
    angle_coeff 936  70.0 111.9
    angle_coeff 937  80.0 134.0
    angle_coeff 938  70.0 91.0
    angle_coeff 939  80.0 134.0
    angle_coeff 940  55.0 127.0
    angle_coeff 941  50.0 94.0
    angle_coeff 942  50.0 126.0
    angle_coeff 943  35.0 108.0
    angle_coeff 944  35.0 114.3
    angle_coeff 945  35.0 114.3
    angle_coeff 946  35.0 114.3
    angle_coeff 947  37.5 108.0
    angle_coeff 948  35.0 109.5
    angle_coeff 949  37.5 110.0
    angle_coeff 950  70.0 117.0
    angle_coeff 951  35.0 111.0
    angle_coeff 952  55.0 109.0
    angle_coeff 953  30.0 79.2
    angle_coeff 954  37.5 117.2
    angle_coeff 955  37.5 117.2
    angle_coeff 956  37.5 117.2
    angle_coeff 957  37.5 126.0
    angle_coeff 958  55.0 128.0
    angle_coeff 959  63.0 85.0
    angle_coeff 960  63.0 114.0
    angle_coeff 961  80.0 89.0
    angle_coeff 962  172.8 120.0
    angle_coeff 963  144.0 120.0
    angle_coeff 964  35.0 109.5
    angle_coeff 965  43.6 106.4
    angle_coeff 966  50.0 112.5
    angle_coeff 967  50.0 120.5
    angle_coeff 968  80.0 117.5
    angle_coeff 969  80.0 117.5
    angle_coeff 970  80.0 125.0
    angle_coeff 971  10.0 109.5
    angle_coeff 972  10.0 109.5
    angle_coeff 973  45.0 109.5
    angle_coeff 974  70.0 117.6
    angle_coeff 975  70.0 117.6
    angle_coeff 976  35.0 119.2
    angle_coeff 977  35.0 119.2
    angle_coeff 978  70.0 121.2
    angle_coeff 979  70.0 121.6
    angle_coeff 980  70.0 117.6
    angle_coeff 981  70.0 121.2
    angle_coeff 982  30.0 125.8
    angle_coeff 983  70.0 125.8
    angle_coeff 984  70.0 125.8
    angle_coeff 985  70.0 125.8
    angle_coeff 986  70.0 125.8
    angle_coeff 987  30.0 128.8
    angle_coeff 988  70.0 105.4
    angle_coeff 989  70.0 128.8
    angle_coeff 990  70.0 128.8
    angle_coeff 991  70.0 128.8
    angle_coeff 992  70.0 128.8
    angle_coeff 993  20.0 109.5
    angle_coeff 994  20.0 109.5
    angle_coeff 995  50.0 118.0
    angle_coeff 996  50.0 121.9
    angle_coeff 997  35.0 110.5
    angle_coeff 998  60.0 110.0
    angle_coeff 999  60.0 100.0
    angle_coeff 1000  60.0 110.0
    angle_coeff 1001  35.0 110.5
    angle_coeff 1002  35.0 109.5
    angle_coeff 1003  35.0 110.5
    angle_coeff 1004  35.0 109.5
    angle_coeff 1005  35.0 110.5
    angle_coeff 1006  35.0 110.5
    angle_coeff 1007  35.0 110.5
    angle_coeff 1008  50.0 112.0
    angle_coeff 1009  35.0 123.3
    angle_coeff 1010  35.0 120.0
    angle_coeff 1011  70.0 124.0
    angle_coeff 1012  35.0 120.0
    angle_coeff 1013  70.0 124.0
    angle_coeff 1014  70.0 124.0
    angle_coeff 1015  85.0 117.0
    angle_coeff 1016  160.0 180.0
    angle_coeff 1017  160.0 180.0
    dihedral_coeff 1  -2.5 1.25 3.1 0.0
    dihedral_coeff 2  -2.5 1.25 3.1 0.0
    dihedral_coeff 3  -2.0 0.7 3.0 0.0
    dihedral_coeff 4  -2.0 0.7 3.0 0.0
    dihedral_coeff 5  -3.4 1.25 3.1 0.0
    dihedral_coeff 6  -3.4 1.25 3.1 0.0
    dihedral_coeff 7  -3.4 1.25 3.1 0.0
    dihedral_coeff 8  -3.4 1.25 3.1 0.0
    dihedral_coeff 9  -2.0 0.5 3.25 0.0
    dihedral_coeff 10  -3.4 1.25 3.1 0.0
    dihedral_coeff 11  -2.0 0.5 3.25 0.0
    dihedral_coeff 12  -3.4 1.25 3.1 0.0
    dihedral_coeff 13  0.3 0.0 1.3 0.0
    dihedral_coeff 14  0.3 0.0 1.3 0.0
    dihedral_coeff 15  0.3 0.0 1.3 0.0
    dihedral_coeff 16  -2.5 1.25 3.1 0.0
    dihedral_coeff 17  -3.4 1.25 3.1 0.0
    dihedral_coeff 18  -3.4 1.25 3.1 0.0
    dihedral_coeff 19  -7.4 3.0 1.8 0.0
    dihedral_coeff 20  -8.4 3.0 1.8 0.0
    dihedral_coeff 21  1.6 3.2 0.0 0.0
    dihedral_coeff 22  0.0 0.5 0.0 0.0
    dihedral_coeff 23  0.0 0.0 0.0 0.0
    dihedral_coeff 24  0.0 0.0 0.0 0.0
    dihedral_coeff 25  0.7 -1.5 0.0 0.0
    dihedral_coeff 26  -0.5 0.2 0.0 0.0
    dihedral_coeff 27  0.8 -0.76 0.0 0.0
    dihedral_coeff 28  -0.9 0.3 0.0 0.0
    dihedral_coeff 29  0.0 0.0 0.3 0.0
    dihedral_coeff 30  3.0 5.5 0.0 0.0
    dihedral_coeff 31  0.0 5.0 0.0 0.0
    dihedral_coeff 32  1.5 5.5 0.0 0.0
    dihedral_coeff 33  -2.0 5.0 0.0 0.0
    dihedral_coeff 34  1.5 5.5 0.0 0.0
    dihedral_coeff 35  4.0 5.0 0.0 0.0
    dihedral_coeff 36  0.0 0.0 0.0 0.0
    dihedral_coeff 37  0.0 0.0 0.36 0.0
    dihedral_coeff 38  0.0 0.0 0.085 0.0
    dihedral_coeff 39  0.0 0.0 0.0 0.0
    dihedral_coeff 40  0.0 0.0 0.0 0.0
    dihedral_coeff 41  -0.65 0.0 0.0 0.0
    dihedral_coeff 42  0.0 0.82 0.0 0.0
    dihedral_coeff 43  0.0 0.0 0.0 0.0
    dihedral_coeff 44  0.0 0.0 0.0 0.0
    dihedral_coeff 45  0.0 0.546 0.0 0.0
    dihedral_coeff 46  0.0 1.412 0.0 0.0
    dihedral_coeff 47  5.26 0.82 0.0 0.0
    dihedral_coeff 48  0.0 0.0 0.0 0.0
    dihedral_coeff 49  1.454 -0.144 -0.775 0.0
    dihedral_coeff 50  0.0 0.0 0.275 0.0
    dihedral_coeff 51  0.0 0.0 -0.553 0.0
    dihedral_coeff 52  0.0 0.0 0.132 0.0
    dihedral_coeff 53  0.0 0.0 0.0 0.0
    dihedral_coeff 54  0.0 0.0 0.36 0.0
    dihedral_coeff 55  1.173 0.189 -1.2 0.0
    dihedral_coeff 56  0.65 0.0 0.0 0.0
    dihedral_coeff 57  1.816 1.222 1.581 0.0
    dihedral_coeff 58  0.0 0.0 0.0 0.0
    dihedral_coeff 59  0.0 0.0 0.0 0.0
    dihedral_coeff 60  0.0 0.0 0.36 0.0
    dihedral_coeff 61  0.0 0.0 0.275 0.0
    dihedral_coeff 62  0.0 0.82 0.0 0.0
    dihedral_coeff 63  0.0 0.82 0.0 0.0
    dihedral_coeff 64  0.0 0.0 0.0 0.0
    dihedral_coeff 65  0.0 0.0 0.0 0.0
    dihedral_coeff 66  0.0 0.0 0.36 0.0
    dihedral_coeff 67  0.0 0.0 0.0 0.0
    dihedral_coeff 68  0.0 5.124 0.0 0.0
    dihedral_coeff 69  0.0 5.0 0.0 0.0
    dihedral_coeff 70  4.669 5.124 0.0 0.0
    dihedral_coeff 71  1.5 5.0 0.0 0.0
    dihedral_coeff 72  -2.0 5.0 0.0 0.0
    dihedral_coeff 73  4.669 5.124 0.0 0.0
    dihedral_coeff 74  4.0 5.0 0.0 0.0
    dihedral_coeff 75  0.4 4.9 0.0 0.0
    dihedral_coeff 76  0.0 4.9 0.0 0.0
    dihedral_coeff 77  0.0 6.603 0.0 0.0
    dihedral_coeff 78  0.0 6.089 0.0 0.0
    dihedral_coeff 79  0.0 4.9 0.0 0.0
    dihedral_coeff 80  0.0 6.089 0.0 0.0
    dihedral_coeff 81  0.0 6.089 0.0 0.0
    dihedral_coeff 82  0.0 6.089 0.0 0.0
    dihedral_coeff 83  2.3 6.089 0.0 0.0
    dihedral_coeff 84  0.0 4.9 0.0 0.0
    dihedral_coeff 85  4.542 6.603 1.045 0.0
    dihedral_coeff 86  2.3 6.089 0.0 0.0
    dihedral_coeff 87  0.0 4.9 0.0 0.0
    dihedral_coeff 88  2.3 6.089 0.0 0.0
    dihedral_coeff 89  2.3 6.089 0.0 0.0
    dihedral_coeff 90  0.0 4.9 0.0 0.0
    dihedral_coeff 91  2.3 6.089 0.0 0.0
    dihedral_coeff 92  4.6 0.0 0.0 0.0
    dihedral_coeff 93  0.0 4.9 0.0 0.0
    dihedral_coeff 94  2.3 6.089 0.0 0.0
    dihedral_coeff 95  0.0 4.9 0.0 0.0
    dihedral_coeff 96  0.0 4.9 0.0 0.0
    dihedral_coeff 97  0.0 4.9 0.0 0.0
    dihedral_coeff 98  2.3 6.089 0.0 0.0
    dihedral_coeff 99  2.3 6.089 0.0 0.0
    dihedral_coeff 100  2.3 6.089 0.0 0.0
    dihedral_coeff 101  2.3 6.089 0.0 0.0
    dihedral_coeff 102  2.3 6.089 0.0 0.0
    dihedral_coeff 103  2.3 6.089 0.0 0.0
    dihedral_coeff 104  0.0 4.9 0.0 0.0
    dihedral_coeff 105  2.3 6.089 0.0 0.0
    dihedral_coeff 106  2.3 6.089 0.0 0.0
    dihedral_coeff 107  2.3 6.089 0.0 0.0
    dihedral_coeff 108  0.9 0.23 -0.505 0.0
    dihedral_coeff 109  0.0 0.0 0.0 0.0
    dihedral_coeff 110  2.5 6.0 0.0 0.0
    dihedral_coeff 111  3.2 -3.0 0.0 0.0
    dihedral_coeff 112  0.0 0.0 0.0 0.0
    dihedral_coeff 113  2.0 0.0 0.0 0.0
    dihedral_coeff 114  0.0 0.0 0.0 0.0
    dihedral_coeff 115  2.0 0.0 0.0 0.0
    dihedral_coeff 116  0.0 2.1 0.0 0.0
    dihedral_coeff 117  0.0 2.1 0.0 0.0
    dihedral_coeff 118  0.0 0.2 0.0 0.0
    dihedral_coeff 119  0.0 2.1 0.0 0.0
    dihedral_coeff 120  0.0 1.1 0.0 0.0
    dihedral_coeff 121  0.0 0.2 0.0 0.0
    dihedral_coeff 122  0.9 0.23 -0.505 0.0
    dihedral_coeff 123  2.5 6.0 0.0 0.0
    dihedral_coeff 124  3.2 -3.0 0.0 0.0
    dihedral_coeff 125  0.8 -3.0 0.0 0.0
    dihedral_coeff 126  0.0 14.0 0.0 0.0
    dihedral_coeff 127  0.0 14.0 0.0 0.0
    dihedral_coeff 128  0.0 14.0 0.0 0.0
    dihedral_coeff 129  0.0 14.0 0.0 0.0
    dihedral_coeff 130  0.0 7.0 0.0 0.0
    dihedral_coeff 131  0.0 7.0 0.0 0.0
    dihedral_coeff 132  0.0 0.0 0.0 0.0
    dihedral_coeff 133  2.0 1.0 0.0 0.0
    dihedral_coeff 134  0.0 1.0 0.0 0.0
    dihedral_coeff 135  -2.0 1.0 0.0 0.0
    dihedral_coeff 136  0.0 1.0 0.0 0.0
    dihedral_coeff 137  -0.75 1.5 0.0 0.0
    dihedral_coeff 138  0.75 1.5 0.0 0.0
    dihedral_coeff 139  0.0 1.5 0.0 0.0
    dihedral_coeff 140  0.0 1.5 0.0 0.0
    dihedral_coeff 141  0.0 2.17 0.0 0.0
    dihedral_coeff 142  0.0 7.25 0.0 0.0
    dihedral_coeff 143  0.0 2.1 0.0 0.0
    dihedral_coeff 144  0.0 2.1 0.0 0.0
    dihedral_coeff 145  0.0 1.1 0.0 0.0
    dihedral_coeff 146  0.0 1.1 0.0 0.0
    dihedral_coeff 147  0.0 4.9 0.0 0.0
    dihedral_coeff 148  0.0 4.9 0.0 0.0
    dihedral_coeff 149  2.5 6.0 0.0 0.0
    dihedral_coeff 150  3.2 -3.0 0.0 0.0
    dihedral_coeff 151  0.0 0.0 0.0 0.0
    dihedral_coeff 152  0.3 0.0 0.5 0.0
    dihedral_coeff 153  0.3 0.0 0.5 0.0
    dihedral_coeff 154  0.0 0.0 0.2 0.0
    dihedral_coeff 155  0.0 0.0 0.2 0.0
    dihedral_coeff 156  -0.356 -0.174 0.492 0.0
    dihedral_coeff 157  0.0 0.0 0.352 0.0
    dihedral_coeff 158  -0.9 0.0 0.0 0.0
    dihedral_coeff 159  -0.9 0.0 0.0 0.0
    dihedral_coeff 160  -0.9 0.0 0.0 0.0
    dihedral_coeff 161  0.0 0.0 0.3 0.0
    dihedral_coeff 162  0.0 0.0 0.3 0.0
    dihedral_coeff 163  5.519 -6.7 0.581 0.0
    dihedral_coeff 164  2.722 -5.154 0.0 0.0
    dihedral_coeff 165  0.0 1.682 0.0 0.0
    dihedral_coeff 166  0.0 1.682 0.0 0.0
    dihedral_coeff 167  -1.257 -1.806 0.003 0.0
    dihedral_coeff 168  3.0 3.0 0.0 0.0
    dihedral_coeff 169  0.0 0.0 0.0 0.0
    dihedral_coeff 170  0.0 0.0 0.0 0.0
    dihedral_coeff 171  -0.75 0.0 0.0 0.0
    dihedral_coeff 172  0.75 0.0 0.0 0.0
    dihedral_coeff 173  2.0 0.0 0.0 0.0
    dihedral_coeff 174  -4.344 -1.714 0.0 0.0
    dihedral_coeff 175  1.711 -0.5 0.663 0.0
    dihedral_coeff 176  1.428 0.086 0.029 0.0
    dihedral_coeff 177  -2.5 0.0 0.25 0.0
    dihedral_coeff 178  0.0 0.0 0.54 0.0
    dihedral_coeff 179  0.3 -0.4 0.4 0.0
    dihedral_coeff 180  0.0 0.0 0.4 0.0
    dihedral_coeff 181  -0.55 0.0 1.0 0.0
    dihedral_coeff 182  -6.18 0.0 0.0 0.0
    dihedral_coeff 183  -2.06 -0.313 0.315 0.0
    dihedral_coeff 184  -4.344 -1.714 0.0 0.0
    dihedral_coeff 185  -4.344 -1.714 0.0 0.0
    dihedral_coeff 186  -9.0 2.0 0.8 0.0
    dihedral_coeff 187  0.0 0.0 -0.1 0.0
    dihedral_coeff 188  -1.697 -0.456 0.585 0.0
    dihedral_coeff 189  -1.697 -0.456 0.585 0.0
    dihedral_coeff 190  9.508 0.0 0.0 0.0
    dihedral_coeff 191  -1.552 0.0 0.0 0.0
    dihedral_coeff 192  4.319 0.0 0.0 0.0
    dihedral_coeff 193  8.0 0.0 0.0 0.0
    dihedral_coeff 194  6.28 -1.467 2.03 0.0
    dihedral_coeff 195  0.0 0.0 0.468 0.0
    dihedral_coeff 196  1.3 -0.05 0.2 0.0
    dihedral_coeff 197  1.262 -0.198 0.465 0.0
    dihedral_coeff 198  2.619 -0.62 0.258 0.0
    dihedral_coeff 199  0.0 -0.65 0.0 0.0
    dihedral_coeff 200  0.0 0.0 0.4 0.0
    dihedral_coeff 201  2.392 -0.674 0.55 0.0
    dihedral_coeff 202  0.845 -0.962 0.713 0.0
    dihedral_coeff 203  0.0 0.0 0.3 0.0
    dihedral_coeff 204  1.3 -0.05 0.2 0.0
    dihedral_coeff 205  2.732 -0.229 0.485 0.0
    dihedral_coeff 206  0.0 0.0 0.4 0.0
    dihedral_coeff 207  0.0 0.0 0.4 0.0
    dihedral_coeff 208  1.262 -0.198 0.465 0.0
    dihedral_coeff 209  1.964 0.0 0.659 0.0
    dihedral_coeff 210  0.0 0.0 0.0 0.0
    dihedral_coeff 211  0.0 0.0 0.452 0.0
    dihedral_coeff 212  0.0 0.0 0.452 0.0
    dihedral_coeff 213  0.0 0.0 0.366 0.0
    dihedral_coeff 214  -0.55 0.0 0.0 0.0
    dihedral_coeff 215  0.0 0.0 0.468 0.0
    dihedral_coeff 216  -0.25 0.0 0.0 0.0
    dihedral_coeff 217  2.0 0.0 0.0 0.0
    dihedral_coeff 218  0.0 0.0 0.4 0.0
    dihedral_coeff 219  11.035 -0.968 0.27 0.0
    dihedral_coeff 220  -1.013 -0.709 0.473 0.0
    dihedral_coeff 221  -0.8 0.0 0.0 0.0
    dihedral_coeff 222  0.0 0.0 0.464 0.0
    dihedral_coeff 223  0.845 -0.962 0.713 0.0
    dihedral_coeff 224  0.845 -0.962 0.713 0.0
    dihedral_coeff 225  0.0 0.0 0.3 0.0
    dihedral_coeff 226  0.0 0.0 0.366 0.0
    dihedral_coeff 227  0.0 0.0 0.462 0.0
    dihedral_coeff 228  0.0 0.0 0.3 0.0
    dihedral_coeff 229  0.0 0.0 0.384 0.0
    dihedral_coeff 230  0.0 0.0 -0.582 0.0
    dihedral_coeff 231  0.0 0.0 0.462 0.0
    dihedral_coeff 232  0.0 0.0 0.462 0.0
    dihedral_coeff 233  0.0 0.0 0.4 0.0
    dihedral_coeff 234  0.0 0.0 0.4 0.0
    dihedral_coeff 235  0.0 0.0 0.452 0.0
    dihedral_coeff 236  0.0 0.0 0.462 0.0
    dihedral_coeff 237  0.0 0.0 0.462 0.0
    dihedral_coeff 238  0.0 0.0 0.462 0.0
    dihedral_coeff 239  0.0 0.0 0.462 0.0
    dihedral_coeff 240  0.0 0.0 0.462 0.0
    dihedral_coeff 241  0.0 0.0 0.462 0.0
    dihedral_coeff 242  0.0 0.0 -0.225 0.0
    dihedral_coeff 243  0.0 0.0 0.3 0.0
    dihedral_coeff 244  0.0 0.0 0.464 0.0
    dihedral_coeff 245  0.0 0.0 0.45 0.0
    dihedral_coeff 246  0.0 0.0 0.366 0.0
    dihedral_coeff 247  1.0 0.0 0.0 0.0
    dihedral_coeff 248  5.2 -0.5 0.0 0.0
    dihedral_coeff 249  -0.759 -0.282 0.68 0.0
    dihedral_coeff 250  0.0 0.0 0.48 0.0
    dihedral_coeff 251  0.925 -0.576 0.677 0.0
    dihedral_coeff 252  1.941 -0.836 0.935 0.0
    dihedral_coeff 253  0.0 0.0 0.647 0.0
    dihedral_coeff 254  0.0 0.0 0.558 0.0
    dihedral_coeff 255  0.0 0.0 0.647 0.0
    dihedral_coeff 256  0.0 0.0 0.0 0.0
    dihedral_coeff 257  0.0 0.0 0.0 0.0
    dihedral_coeff 258  0.0 0.0 0.0 0.0
    dihedral_coeff 259  0.0 0.0 0.0 0.0
    dihedral_coeff 260  0.0 0.0 0.0 0.0
    dihedral_coeff 261  0.0 0.0 0.0 0.0
    dihedral_coeff 262  -0.521 -2.018 1.996 0.0
    dihedral_coeff 263  -0.5 -1.5 1.0 0.0
    dihedral_coeff 264  -0.5 -1.5 1.0 0.0
    dihedral_coeff 265  -1.22 -0.126 0.422 0.0
    dihedral_coeff 266  0.65 -0.25 0.67 0.0
    dihedral_coeff 267  -1.42 -0.62 0.1 0.0
    dihedral_coeff 268  0.0 0.0 0.76 0.0
    dihedral_coeff 269  0.0 0.0 0.198 0.0
    dihedral_coeff 270  0.0 0.0 0.76 0.0
    dihedral_coeff 271  0.0 0.0 0.76 0.0
    dihedral_coeff 272  0.0 0.0 0.76 0.0
    dihedral_coeff 273  0.0 0.0 0.3 0.0
    dihedral_coeff 274  0.0 0.0 0.0 0.0
    dihedral_coeff 275  -2.365 0.912 -0.85 0.0
    dihedral_coeff 276  -1.737 1.251 -3.501 0.0
    dihedral_coeff 277  0.0 0.0 0.0 0.0
    dihedral_coeff 278  0.0 0.462 0.0 0.0
    dihedral_coeff 279  4.753 -0.734 0.0 0.0
    dihedral_coeff 280  0.0 0.0 0.0 0.0
    dihedral_coeff 281  0.0 0.0 0.0 0.0
    dihedral_coeff 282  2.929 -2.533 0.497 0.0
    dihedral_coeff 283  2.3 6.089 0.0 0.0
    dihedral_coeff 284  0.0 0.0 0.0 0.0
    dihedral_coeff 285  0.0 0.0 0.0 0.0
    dihedral_coeff 286  0.0 0.0 0.0 0.0
    dihedral_coeff 287  0.0 0.0 0.0 0.0
    dihedral_coeff 288  1.362 -1.457 0.149 0.0
    dihedral_coeff 289  0.0 0.0 0.0 0.0
    dihedral_coeff 290  0.416 -0.128 0.695 0.0
    dihedral_coeff 291  -0.19 -0.417 0.418 0.0
    dihedral_coeff 292  0.0 0.0 0.56 0.0
    dihedral_coeff 293  0.0 0.0 0.4 0.0
    dihedral_coeff 294  0.0 0.0 0.56 0.0
    dihedral_coeff 295  1.711 -0.5 0.663 0.0
    dihedral_coeff 296  0.0 0.0 0.468 0.0
    dihedral_coeff 297  0.5 0.0 0.0 0.0
    dihedral_coeff 298  0.5 0.0 0.0 0.0
    dihedral_coeff 299  0.5 0.0 0.0 0.0
    dihedral_coeff 300  2.817 -0.169 0.543 0.0
    dihedral_coeff 301  0.346 0.405 -0.904 0.0
    dihedral_coeff 302  0.346 0.405 -0.904 0.0
    dihedral_coeff 303  0.0 0.0 0.3 0.0
    dihedral_coeff 304  0.0 0.0 0.318 0.0
    dihedral_coeff 305  0.0 0.0 -0.372 0.0
    dihedral_coeff 306  0.0 0.0 -0.372 0.0
    dihedral_coeff 307  0.0 0.0 -0.25 0.0
    dihedral_coeff 308  0.0 -8.0 0.0 0.0
    dihedral_coeff 309  0.0 -8.0 0.0 0.0
    dihedral_coeff 310  0.0 0.0 0.0 0.0
    dihedral_coeff 311  0.0 0.45 0.0 0.0
    dihedral_coeff 312  0.0 0.0 0.0 0.0
    dihedral_coeff 313  -0.5 0.5 -0.5 0.0
    dihedral_coeff 314  0.0 -0.4 0.0 0.0
    dihedral_coeff 315  0.0 0.0 0.0 0.0
    dihedral_coeff 316  0.0 0.0 0.0 0.0
    dihedral_coeff 317  0.0 0.0 0.4 0.0
    dihedral_coeff 318  0.5 0.0 0.0 0.0
    dihedral_coeff 319  0.346 0.405 -0.904 0.0
    dihedral_coeff 320  0.0 0.0 -0.372 0.0
    dihedral_coeff 321  0.0 0.0 -0.372 0.0
    dihedral_coeff 322  0.0 0.0 -0.372 0.0
    dihedral_coeff 323  1.711 -0.5 0.663 0.0
    dihedral_coeff 324  0.0 0.0 0.3 0.0
    dihedral_coeff 325  0.0 0.0 0.468 0.0
    dihedral_coeff 326  1.438 -0.124 0.264 0.0
    dihedral_coeff 327  0.0 0.0 0.347 0.0
    dihedral_coeff 328  0.0 0.0 0.302 0.0
    dihedral_coeff 329  0.0 0.0 0.261 0.0
    dihedral_coeff 330  0.0 0.0 0.462 0.0
    dihedral_coeff 331  0.0 0.0 0.3 0.0
    dihedral_coeff 332  -0.19 -0.417 0.418 0.0
    dihedral_coeff 333  1.829 0.243 -0.498 0.0
    dihedral_coeff 334  -0.19 -0.417 0.418 0.0
    dihedral_coeff 335  0.0 0.0 0.0 0.0
    dihedral_coeff 336  0.0 0.0 0.0 0.0
    dihedral_coeff 337  0.0 0.0 0.177 0.0
    dihedral_coeff 338  0.0 0.0 0.0 0.0
    dihedral_coeff 339  0.0 0.0 0.0 0.0
    dihedral_coeff 340  1.0 -0.35 0.0 0.0
    dihedral_coeff 341  2.756 -0.872 -3.68 0.0
    dihedral_coeff 342  -1.0 -0.35 0.0 0.0
    dihedral_coeff 343  1.5 -1.5 0.0 0.0
    dihedral_coeff 344  -1.5 -1.5 0.0 0.0
    dihedral_coeff 345  -1.5 -1.5 0.0 0.0
    dihedral_coeff 346  0.0 0.0 0.0 0.0
    dihedral_coeff 347  0.0 0.5 -0.5 0.0
    dihedral_coeff 348  0.0 0.0 0.0 0.0
    dihedral_coeff 349  0.0 0.0 0.0 0.0
    dihedral_coeff 350  0.0 0.0 0.0 0.0
    dihedral_coeff 351  0.0 0.0 0.25 0.0
    dihedral_coeff 352  0.0 0.0 0.25 0.0
    dihedral_coeff 353  2.25 0.0 0.0 0.0
    dihedral_coeff 354  0.0 0.0 0.0 0.0
    dihedral_coeff 355  0.0 0.0 0.0 0.0
    dihedral_coeff 356  0.0 0.0 0.0 0.0
    dihedral_coeff 357  0.0 0.0 0.0 0.0
    dihedral_coeff 358  0.0 0.0 0.0 0.0
    dihedral_coeff 359  0.0 0.0 0.35 0.0
    dihedral_coeff 360  0.0 0.0 0.35 0.0
    dihedral_coeff 361  0.0 0.0 0.35 0.0
    dihedral_coeff 362  0.0 0.0 0.35 0.0
    dihedral_coeff 363  0.0 0.0 0.0 0.0
    dihedral_coeff 364  0.0 0.0 0.0 0.0
    dihedral_coeff 365  -0.714 0.0 0.0 0.0
    dihedral_coeff 366  0.0 0.0 0.0 0.0
    dihedral_coeff 367  0.0 0.0 0.0 0.0
    dihedral_coeff 368  0.0 0.0 -0.48 0.0
    dihedral_coeff 369  0.0 0.0 0.0 0.0
    dihedral_coeff 370  0.0 0.0 0.0 0.0
    dihedral_coeff 371  0.0 0.0 0.0 0.0
    dihedral_coeff 372  0.0 0.0 0.0 0.0
    dihedral_coeff 373  0.0 0.45 0.0 0.0
    dihedral_coeff 374  0.0 0.0 0.0 0.0
    dihedral_coeff 375  1.7 -0.6 0.0 0.0
    dihedral_coeff 376  0.0 -0.4 0.0 0.0
    dihedral_coeff 377  0.0 0.0 0.0 0.0
    dihedral_coeff 378  0.0 0.45 0.0 0.0
    dihedral_coeff 379  0.0 0.0 0.0 0.0
    dihedral_coeff 380  0.0 -0.4 0.0 0.0
    dihedral_coeff 381  0.0 0.0 0.0 0.0
    dihedral_coeff 382  0.0 0.0 0.0 0.0
    dihedral_coeff 383  0.0 0.0 0.0 0.0
    dihedral_coeff 384  0.0 0.0 0.0 0.0
    dihedral_coeff 385  0.0 0.0 0.0 0.0
    dihedral_coeff 386  0.0 0.0 0.3 0.0
    dihedral_coeff 387  0.0 -1.0 0.0 0.0
    dihedral_coeff 388  0.0 -1.0 0.0 0.0
    dihedral_coeff 389  0.0 0.4 0.0 0.0
    dihedral_coeff 390  0.0 0.0 0.0 0.0
    dihedral_coeff 391  1.0 -0.5 0.5 0.0
    dihedral_coeff 392  0.0 0.0 0.3 0.0
    dihedral_coeff 393  0.0 0.0 0.0 0.0
    dihedral_coeff 394  1.0 -0.35 0.0 0.0
    dihedral_coeff 395  -1.0 -0.35 0.0 0.0
    dihedral_coeff 396  -1.0 -0.35 0.0 0.0
    dihedral_coeff 397  1.5 -1.5 0.0 0.0
    dihedral_coeff 398  3.132 -1.491 2.744 0.0
    dihedral_coeff 399  -1.5 -1.5 0.0 0.0
    dihedral_coeff 400  -1.737 1.251 -3.501 0.0
    dihedral_coeff 401  -1.396 -0.427 0.0 0.0
    dihedral_coeff 402  4.753 -0.734 0.0 0.0
    dihedral_coeff 403  0.0 0.0 -0.139 0.0
    dihedral_coeff 404  0.0 0.0 0.0 0.0
    dihedral_coeff 405  0.0 0.0 0.0 0.0
    dihedral_coeff 406  1.0 0.0 0.0 0.0
    dihedral_coeff 407  0.0 0.0 0.26 0.0
    dihedral_coeff 408  0.0 0.0 0.18 0.0
    dihedral_coeff 409  0.0 0.0 0.0 0.0
    dihedral_coeff 410  0.0 0.0 0.18 0.0
    dihedral_coeff 411  0.346 0.405 -0.904 0.0
    dihedral_coeff 412  0.0 0.0 0.3 0.0
    dihedral_coeff 413  0.0 0.0 0.318 0.0
    dihedral_coeff 414  0.0 0.0 -0.372 0.0
    dihedral_coeff 415  0.0 1.1 0.0 0.0
    dihedral_coeff 416  0.0 1.1 0.0 0.0
    dihedral_coeff 417  0.0 -7.414 1.705 0.0
    dihedral_coeff 418  0.0 0.6 0.0 0.0
    dihedral_coeff 419  1.6 5.1 0.0 0.0
    dihedral_coeff 420  0.0 4.8 0.0 0.0
    dihedral_coeff 421  0.0 7.25 0.0 0.0
    dihedral_coeff 422  0.0 7.25 0.0 0.0
    dihedral_coeff 423  0.0 7.25 0.0 0.0
    dihedral_coeff 424  0.0 7.25 0.0 0.0
    dihedral_coeff 425  0.0 7.25 0.0 0.0
    dihedral_coeff 426  0.0 0.0 0.0 0.0
    dihedral_coeff 427  0.0 0.0 0.0 0.0
    dihedral_coeff 428  0.0 0.0 0.0 0.0
    dihedral_coeff 429  0.0 0.0 0.0 0.0
    dihedral_coeff 430  0.0 0.0 0.0 0.0
    dihedral_coeff 431  0.0 0.0 0.0 0.0
    dihedral_coeff 432  0.0 0.0 0.0 0.0
    dihedral_coeff 433  0.0 0.0 0.0 0.0
    dihedral_coeff 434  0.0 0.0 0.0 0.0
    dihedral_coeff 435  0.0 0.0 0.0 0.0
    dihedral_coeff 436  0.0 0.0 0.0 0.0
    dihedral_coeff 437  0.0 0.0 0.0 0.0
    dihedral_coeff 438  0.0 0.0 0.0 0.0
    dihedral_coeff 439  0.0 0.0 0.0 0.0
    dihedral_coeff 440  0.0 0.0 0.0 0.0
    dihedral_coeff 441  0.0 0.0 0.3 0.0
    dihedral_coeff 442  0.0 0.0 0.3 0.0
    dihedral_coeff 443  0.65 -0.25 0.67 0.0
    dihedral_coeff 444  0.0 0.0 0.76 0.0
    dihedral_coeff 445  -3.5 3.0 0.0 0.0
    dihedral_coeff 446  -3.5 3.0 0.0 0.0
    dihedral_coeff 447  0.0 2.5 0.0 0.0
    dihedral_coeff 448  0.0 3.0 0.0 0.0
    dihedral_coeff 449  0.4 5.5 0.0 0.0
    dihedral_coeff 450  0.0 2.99 0.0 0.0
    dihedral_coeff 451  -0.375 -1.358 0.004 0.0
    dihedral_coeff 452  0.65 -0.25 0.67 0.0
    dihedral_coeff 453  -0.375 -1.358 0.004 0.0
    dihedral_coeff 454  0.0 0.0 0.76 0.0
    dihedral_coeff 455  3.0 3.0 0.0 0.0
    dihedral_coeff 456  0.0 5.2 0.0 0.0
    dihedral_coeff 457  0.0 0.0 0.562 0.0
    dihedral_coeff 458  3.5 -3.3 1.5 0.0
    dihedral_coeff 459  0.0 0.0 0.0 0.0
    dihedral_coeff 460  0.0 0.0 0.0 0.0
    dihedral_coeff 461  0.0 7.25 0.0 0.0
    dihedral_coeff 462  0.0 7.25 0.0 0.0
    dihedral_coeff 463  0.0 7.25 0.0 0.0
    dihedral_coeff 464  0.0 7.25 0.0 0.0
    dihedral_coeff 465  0.0 0.0 0.0 0.0
    dihedral_coeff 466  0.0 0.0 0.0 0.0
    dihedral_coeff 467  0.0 2.1 0.0 0.0
    dihedral_coeff 468  0.0 2.1 0.0 0.0
    dihedral_coeff 469  0.0 2.1 0.0 0.0
    dihedral_coeff 470  0.0 2.1 0.0 0.0
    dihedral_coeff 471  0.0 2.1 0.0 0.0
    dihedral_coeff 472  0.0 2.1 0.0 0.0
    dihedral_coeff 473  0.0 2.1 0.0 0.0
    dihedral_coeff 474  0.0 7.25 0.0 0.0
    dihedral_coeff 475  0.0 7.25 0.0 0.0
    dihedral_coeff 476  0.0 7.25 0.0 0.0
    dihedral_coeff 477  0.0 7.25 0.0 0.0
    dihedral_coeff 478  0.0 0.0 0.0 0.0
    dihedral_coeff 479  2.074 -2.966 2.473 0.0
    dihedral_coeff 480  1.671 -4.901 0.669 0.0
    dihedral_coeff 481  0.0 2.1 0.0 0.0
    dihedral_coeff 482  0.0 2.1 0.0 0.0
    dihedral_coeff 483  0.0 2.1 0.0 0.0
    dihedral_coeff 484  0.0 2.1 0.0 0.0
    dihedral_coeff 485  0.0 2.1 0.0 0.0
    dihedral_coeff 486  0.0 2.1 0.0 0.0
    dihedral_coeff 487  0.0 2.1 0.0 0.0
    dihedral_coeff 488  0.0 2.17 0.0 0.0
    dihedral_coeff 489  0.0 3.0 0.0 0.0
    dihedral_coeff 490  0.0 2.1 0.0 0.0
    dihedral_coeff 491  0.0 2.1 0.0 0.0
    dihedral_coeff 492  0.0 2.1 0.0 0.0
    dihedral_coeff 493  0.0 2.1 0.0 0.0
    dihedral_coeff 494  0.0 2.17 0.0 0.0
    dihedral_coeff 495  0.0 2.17 0.0 0.0
    dihedral_coeff 496  0.0 7.25 0.0 0.0
    dihedral_coeff 497  0.0 2.17 0.0 0.0
    dihedral_coeff 498  0.0 2.17 0.0 0.0
    dihedral_coeff 499  0.0 2.17 0.0 0.0
    dihedral_coeff 500  0.0 2.17 0.0 0.0
    dihedral_coeff 501  0.0 0.0 0.0 0.0
    dihedral_coeff 502  -1.396 -0.427 0.0 0.0
    dihedral_coeff 503  -1.396 -0.427 0.0 0.0
    dihedral_coeff 504  0.0 0.0 0.0 0.0
    dihedral_coeff 505  0.0 0.0 0.0 0.0
    dihedral_coeff 506  0.0 0.0 0.0 0.0
    dihedral_coeff 507  0.0 0.0 0.0 0.0
    dihedral_coeff 508  0.0 0.0 0.3 0.0
    dihedral_coeff 509  0.0 0.0 0.3 0.0
    dihedral_coeff 510  0.0 0.0 0.3 0.0
    dihedral_coeff 511  -7.582 3.431 3.198 0.0
    dihedral_coeff 512  0.0 2.03 0.0 0.0
    dihedral_coeff 513  0.0 2.1 0.0 0.0
    dihedral_coeff 514  0.0 2.1 0.0 0.0
    dihedral_coeff 515  0.0 2.1 0.0 0.0
    dihedral_coeff 516  0.0 2.1 0.0 0.0
    dihedral_coeff 517  0.0 2.1 0.0 0.0
    dihedral_coeff 518  0.0 2.1 0.0 0.0
    dihedral_coeff 519  0.0 2.1 0.0 0.0
    dihedral_coeff 520  0.0 -8.0 0.0 0.0
    dihedral_coeff 521  0.0 -8.0 0.0 0.0
    dihedral_coeff 522  0.0 14.0 0.0 0.0
    dihedral_coeff 523  0.0 14.0 0.0 0.0
    dihedral_coeff 524  0.0 14.0 0.0 0.0
    dihedral_coeff 525  0.0 14.0 0.0 0.0
    dihedral_coeff 526  0.0 14.0 0.0 0.0
    dihedral_coeff 527  0.0 14.0 0.0 0.0
    dihedral_coeff 528  0.0 14.0 0.0 0.0
    dihedral_coeff 529  0.0 14.0 0.0 0.0
    dihedral_coeff 530  0.0 14.0 0.0 0.0
    dihedral_coeff 531  0.0 14.0 0.0 0.0
    dihedral_coeff 532  0.0 14.0 0.0 0.0
    dihedral_coeff 533  0.0 14.0 0.0 0.0
    dihedral_coeff 534  -1.6 14.0 0.0 0.0
    dihedral_coeff 535  0.0 14.0 0.0 0.0
    dihedral_coeff 536  0.0 14.0 0.0 0.0
    dihedral_coeff 537  0.0 14.0 0.0 0.0
    dihedral_coeff 538  0.205 -0.531 0.0 0.0
    dihedral_coeff 539  0.0 0.0 -0.372 0.0
    dihedral_coeff 540  0.0 0.0 -0.372 0.0
    dihedral_coeff 541  1.241 3.353 -0.286 0.0
    dihedral_coeff 542  0.0 14.0 0.0 0.0
    dihedral_coeff 543  0.0 14.0 0.0 0.0
    dihedral_coeff 544  0.0 14.0 0.0 0.0
    dihedral_coeff 545  0.0 14.0 0.0 0.0
    dihedral_coeff 546  0.0 14.0 0.0 0.0
    dihedral_coeff 547  0.0 14.0 0.0 0.0
    dihedral_coeff 548  0.0 14.0 0.0 0.0
    dihedral_coeff 549  0.0 14.0 0.0 0.0
    dihedral_coeff 550  0.0 14.0 0.0 0.0
    dihedral_coeff 551  0.0 14.0 0.0 0.0
    dihedral_coeff 552  0.0 14.0 0.0 0.0
    dihedral_coeff 553  0.0 2.17 0.0 0.0
    dihedral_coeff 554  0.0 2.17 0.0 0.0
    dihedral_coeff 555  0.0 7.25 0.0 0.0
    dihedral_coeff 556  0.0 7.25 0.0 0.0
    dihedral_coeff 557  0.0 7.25 0.0 0.0
    dihedral_coeff 558  0.0 2.17 0.0 0.0
    dihedral_coeff 559  0.0 2.17 0.0 0.0
    dihedral_coeff 560  0.0 0.0 0.0 0.0
    dihedral_coeff 561  0.0 0.0 0.0 0.0
    dihedral_coeff 562  0.0 7.25 0.0 0.0
    dihedral_coeff 563  0.0 7.25 0.0 0.0
    dihedral_coeff 564  0.0 7.25 0.0 0.0
    dihedral_coeff 565  0.0 7.25 0.0 0.0
    dihedral_coeff 566  0.0 7.25 0.0 0.0
    dihedral_coeff 567  0.0 7.25 0.0 0.0
    dihedral_coeff 568  0.0 7.25 0.0 0.0
    dihedral_coeff 569  0.0 7.25 0.0 0.0
    dihedral_coeff 570  0.0 7.25 0.0 0.0
    dihedral_coeff 571  0.0 7.25 0.0 0.0
    dihedral_coeff 572  0.0 7.25 0.0 0.0
    dihedral_coeff 573  0.0 7.25 0.0 0.0
    dihedral_coeff 574  0.0 7.25 0.0 0.0
    dihedral_coeff 575  0.0 7.25 0.0 0.0
    dihedral_coeff 576  0.0 7.25 0.0 0.0
    dihedral_coeff 577  0.0 7.25 0.0 0.0
    dihedral_coeff 578  0.0 7.25 0.0 0.0
    dihedral_coeff 579  0.0 1.62 0.0 -0.44
    dihedral_coeff 580  0.0 7.25 0.0 0.0
    dihedral_coeff 581  0.0 7.25 0.0 0.0
    dihedral_coeff 582  0.0 7.25 0.0 0.0
    dihedral_coeff 583  0.0 7.25 0.0 0.0
    dihedral_coeff 584  0.0 7.25 0.0 0.0
    dihedral_coeff 585  0.0 7.25 0.0 0.0
    dihedral_coeff 586  0.0 7.25 0.0 0.0
    dihedral_coeff 587  0.0 7.25 0.0 0.0
    dihedral_coeff 588  0.0 7.25 0.0 0.0
    dihedral_coeff 589  0.0 7.25 0.0 0.0
    dihedral_coeff 590  0.0 7.25 0.0 0.0
    dihedral_coeff 591  0.0 7.25 0.0 0.0
    dihedral_coeff 592  0.0 7.25 0.0 0.0
    dihedral_coeff 593  0.0 0.0 -0.372 0.0
    dihedral_coeff 594  1.241 3.353 -0.286 0.0
    dihedral_coeff 595  0.0 0.0 -0.372 0.0
    dihedral_coeff 596  1.241 3.353 -0.286 0.0
    dihedral_coeff 597  0.0 0.0 0.0 0.0
    dihedral_coeff 598  0.0 0.0 0.0 0.0
    dihedral_coeff 599  0.0 2.03 0.0 0.0
    dihedral_coeff 600  0.0 3.9 0.0 0.0
    dihedral_coeff 601  0.0 7.936 0.0 0.0
    dihedral_coeff 602  0.0 3.9 0.0 0.0
    dihedral_coeff 603  0.0 2.03 0.0 0.0
    dihedral_coeff 604  0.0 7.25 0.0 0.0
    dihedral_coeff 605  0.0 7.25 0.0 0.0
    dihedral_coeff 606  0.0 7.25 0.0 0.0
    dihedral_coeff 607  0.0 7.0 0.0 0.0
    dihedral_coeff 608  0.0 0.0 0.0 0.0
    dihedral_coeff 609  0.0 -0.9 0.0 0.0
    dihedral_coeff 610  1.656 -0.768 -0.117 0.0
    dihedral_coeff 611  0.0 7.25 0.0 0.0
    dihedral_coeff 612  0.0 7.25 0.0 0.0
    dihedral_coeff 613  0.0 7.25 0.0 0.0
    dihedral_coeff 614  0.0 7.25 0.0 0.0
    dihedral_coeff 615  0.0 7.25 0.0 0.0
    dihedral_coeff 616  0.0 7.25 0.0 0.0
    dihedral_coeff 617  0.0 7.25 0.0 0.0
    dihedral_coeff 618  0.0 7.25 0.0 0.0
    dihedral_coeff 619  0.0 7.25 0.0 0.0
    dihedral_coeff 620  0.0 3.651 0.0 0.0
    dihedral_coeff 621  0.0 1.15 0.0 0.0
    dihedral_coeff 622  0.205 -0.531 0.0 0.0
    dihedral_coeff 623  0.0 0.0 -0.372 0.0
    dihedral_coeff 624  1.241 3.353 -0.286 0.0
    dihedral_coeff 625  0.0 7.25 0.0 0.0
    dihedral_coeff 626  0.0 7.25 0.0 0.0
    dihedral_coeff 627  0.0 0.0 0.3 0.0
    dihedral_coeff 628  0.0 0.0 0.3 0.0
    dihedral_coeff 629  0.0 0.0 -0.372 0.0
    dihedral_coeff 630  0.0 0.0 0.3 0.0
    dihedral_coeff 631  0.0 0.0 -0.372 0.0
    dihedral_coeff 632  1.423 4.055 0.858 0.0
    dihedral_coeff 633  0.0 0.0 0.3 0.0
    dihedral_coeff 634  0.0 0.0 -0.372 0.0
    dihedral_coeff 635  0.0 0.0 0.3 0.0
    dihedral_coeff 636  0.0 0.0 0.3 0.0
    dihedral_coeff 637  0.0 0.0 -0.372 0.0
    dihedral_coeff 638  0.0 0.0 -0.372 0.0
    dihedral_coeff 639  0.0 0.0 -0.372 0.0
    dihedral_coeff 640  1.423 4.055 0.858 0.0
    dihedral_coeff 641  0.0 2.1 0.0 0.0
    dihedral_coeff 642  0.0 2.1 0.0 0.0
    dihedral_coeff 643  0.0 2.03 0.0 0.0
    dihedral_coeff 644  0.0 7.25 0.0 0.0
    dihedral_coeff 645  0.0 7.25 0.0 0.0
    dihedral_coeff 646  0.0 7.25 0.0 0.0
    dihedral_coeff 647  0.0 7.25 0.0 0.0
    dihedral_coeff 648  0.0 7.25 0.0 0.0
    dihedral_coeff 649  0.0 7.25 0.0 0.0
    dihedral_coeff 650  0.0 10.0 0.0 0.0
    dihedral_coeff 651  0.0 7.25 0.0 0.0
    dihedral_coeff 652  0.0 7.25 0.0 0.0
    dihedral_coeff 653  0.0 7.25 0.0 0.0
    dihedral_coeff 654  0.0 7.25 0.0 0.0
    dihedral_coeff 655  0.0 5.0 0.0 0.0
    dihedral_coeff 656  0.0 10.0 0.0 0.0
    dihedral_coeff 657  0.0 10.0 0.0 0.0
    dihedral_coeff 658  0.0 3.05 0.0 0.0
    dihedral_coeff 659  0.0 4.65 0.0 0.0
    dihedral_coeff 660  0.0 10.0 0.0 0.0
    dihedral_coeff 661  0.0 5.0 0.0 0.0
    dihedral_coeff 662  0.0 2.8 0.0 0.0
    dihedral_coeff 663  0.0 5.0 0.0 0.0
    dihedral_coeff 664  0.0 2.17 0.0 0.0
    dihedral_coeff 665  0.0 2.17 0.0 0.0
    dihedral_coeff 666  0.0 7.25 0.0 0.0
    dihedral_coeff 667  0.0 7.25 0.0 0.0
    dihedral_coeff 668  0.0 3.35 0.0 0.0
    dihedral_coeff 669  0.0 6.0 0.0 0.0
    dihedral_coeff 670  0.0 7.25 0.0 0.0
    dihedral_coeff 671  0.0 7.25 0.0 0.0
    dihedral_coeff 672  0.0 7.25 0.0 0.0
    dihedral_coeff 673  0.0 10.0 0.0 0.0
    dihedral_coeff 674  0.0 10.0 0.0 0.0
    dihedral_coeff 675  0.0 7.25 0.0 0.0
    dihedral_coeff 676  0.0 10.0 0.0 0.0
    dihedral_coeff 677  0.0 7.25 0.0 0.0
    dihedral_coeff 678  0.0 7.25 0.0 0.0
    dihedral_coeff 679  0.0 7.25 0.0 0.0
    dihedral_coeff 680  0.0 4.8 0.0 0.0
    dihedral_coeff 681  0.0 7.25 0.0 0.0
    dihedral_coeff 682  0.0 7.25 0.0 0.0
    dihedral_coeff 683  0.0 10.0 0.0 0.0
    dihedral_coeff 684  0.0 7.25 0.0 0.0
    dihedral_coeff 685  0.0 7.25 0.0 0.0
    dihedral_coeff 686  0.0 13.05 0.0 0.0
    dihedral_coeff 687  0.0 2.17 0.0 0.0
    dihedral_coeff 688  0.0 2.17 0.0 0.0
    dihedral_coeff 689  0.0 2.17 0.0 0.0
    dihedral_coeff 690  0.0 2.17 0.0 0.0
    dihedral_coeff 691  0.0 2.17 0.0 0.0
    dihedral_coeff 692  0.0 7.25 0.0 0.0
    dihedral_coeff 693  0.0 10.75 0.0 0.0
    dihedral_coeff 694  0.0 10.75 0.0 0.0
    dihedral_coeff 695  0.0 10.75 0.0 0.0
    dihedral_coeff 696  0.0 10.75 0.0 0.0
    dihedral_coeff 697  0.0 10.75 0.0 0.0
    dihedral_coeff 698  0.0 7.25 0.0 0.0
    dihedral_coeff 699  0.0 7.25 0.0 0.0
    dihedral_coeff 700  0.0 7.25 0.0 0.0
    dihedral_coeff 701  0.0 2.17 0.0 0.0
    dihedral_coeff 702  0.0 2.17 0.0 0.0
    dihedral_coeff 703  0.0 2.17 0.0 0.0
    dihedral_coeff 704  0.0 2.17 0.0 0.0
    dihedral_coeff 705  0.0 10.75 0.0 0.0
    dihedral_coeff 706  0.0 10.75 0.0 0.0
    dihedral_coeff 707  0.0 10.75 0.0 0.0
    dihedral_coeff 708  0.0 10.75 0.0 0.0
    dihedral_coeff 709  0.0 2.17 0.0 0.0
    dihedral_coeff 710  0.0 2.17 0.0 0.0
    dihedral_coeff 711  0.0 2.17 0.0 0.0
    dihedral_coeff 712  0.0 2.17 0.0 0.0
    dihedral_coeff 713  0.0 7.25 0.0 0.0
    dihedral_coeff 714  0.0 7.25 0.0 0.0
    dihedral_coeff 715  0.0 7.25 0.0 0.0
    dihedral_coeff 716  0.0 7.25 0.0 0.0
    dihedral_coeff 717  0.0 10.75 0.0 0.0
    dihedral_coeff 718  0.0 7.25 0.0 0.0
    dihedral_coeff 719  0.0 7.25 0.0 0.0
    dihedral_coeff 720  0.0 7.25 0.0 0.0
    dihedral_coeff 721  0.0 7.25 0.0 0.0
    dihedral_coeff 722  0.0 2.17 0.0 0.0
    dihedral_coeff 723  0.0 2.17 0.0 0.0
    dihedral_coeff 724  0.0 2.17 0.0 0.0
    dihedral_coeff 725  0.0 2.17 0.0 0.0
    dihedral_coeff 726  0.0 2.17 0.0 0.0
    dihedral_coeff 727  0.0 2.17 0.0 0.0
    dihedral_coeff 728  0.0 2.17 0.0 0.0
    dihedral_coeff 729  0.0 2.17 0.0 0.0
    dihedral_coeff 730  0.0 2.17 0.0 0.0
    dihedral_coeff 731  0.0 7.25 0.0 0.0
    dihedral_coeff 732  0.0 6.089 0.0 0.0
    dihedral_coeff 733  0.0 4.9 0.0 0.0
    dihedral_coeff 734  0.0 6.089 0.0 0.0
    dihedral_coeff 735  0.0 20.0 0.0 0.0
    dihedral_coeff 736  2.3 6.089 0.0 0.0
    dihedral_coeff 737  0.0 4.9 0.0 0.0
    dihedral_coeff 738  2.3 6.089 0.0 0.0
    dihedral_coeff 739  2.3 6.089 0.0 0.0
    dihedral_coeff 740  0.0 0.0 0.0 0.0
    dihedral_coeff 741  0.0 0.0 0.0 0.0
    dihedral_coeff 742  0.0 0.0 0.0 0.0
    dihedral_coeff 743  0.0 0.0 0.0 0.0
    dihedral_coeff 744  0.0 0.0 0.0 0.0
    dihedral_coeff 745  0.0 0.0 0.0 0.0
    dihedral_coeff 746  0.0 0.0 0.0 0.0
    dihedral_coeff 747  0.0 0.0 0.0 0.0
    dihedral_coeff 748  0.0 0.0 0.0 0.0
    dihedral_coeff 749  0.0 0.0 0.0 0.0
    dihedral_coeff 750  0.0 0.0 0.0 0.0
    dihedral_coeff 751  0.0 0.0 0.0 0.0
    dihedral_coeff 752  0.0 0.0 0.0 0.0
    dihedral_coeff 753  0.0 0.0 0.0 0.0
    dihedral_coeff 754  0.0 0.0 0.0 0.0
    dihedral_coeff 755  0.0 14.0 0.0 0.0
    dihedral_coeff 756  0.0 14.0 0.0 0.0
    dihedral_coeff 757  0.0 14.0 0.0 0.0
    dihedral_coeff 758  0.0 14.0 0.0 0.0
    dihedral_coeff 759  0.0 14.0 0.0 0.0
    dihedral_coeff 760  0.0 14.0 0.0 0.0
    dihedral_coeff 761  0.0 14.0 0.0 0.0
    dihedral_coeff 762  0.0 14.0 0.0 0.0
    dihedral_coeff 763  0.0 14.0 0.0 0.0
    dihedral_coeff 764  0.0 14.0 0.0 0.0
    dihedral_coeff 765  0.0 14.0 0.0 0.0
    dihedral_coeff 766  0.0 14.0 0.0 0.0
    dihedral_coeff 767  0.0 14.0 0.0 0.0
    dihedral_coeff 768  0.0 14.0 0.0 0.0
    dihedral_coeff 769  0.0 14.0 0.0 0.0
    dihedral_coeff 770  1.423 4.055 0.858 0.0
    dihedral_coeff 771  1.816 1.222 1.581 0.0
    dihedral_coeff 772  0.0 0.82 0.0 0.0
    dihedral_coeff 773  1.0 0.0 0.0 0.0
    dihedral_coeff 774  -1.697 -0.456 0.585 0.0
    dihedral_coeff 775  -1.697 -0.456 0.585 0.0
    dihedral_coeff 776  -1.697 -0.456 0.585 0.0
    dihedral_coeff 777  6.28 -1.467 2.03 0.0
    dihedral_coeff 778  1.428 0.086 0.029 0.0
    dihedral_coeff 779  1.428 0.086 0.029 0.0
    dihedral_coeff 780  2.732 -0.229 0.485 0.0
    dihedral_coeff 781  0.845 -0.962 0.713 0.0
    dihedral_coeff 782  1.0 0.0 0.0 0.0
    dihedral_coeff 783  0.845 -0.962 0.713 0.0
    dihedral_coeff 784  1.0 0.0 0.0 0.0
    dihedral_coeff 785  0.845 -0.962 0.713 0.0
    dihedral_coeff 786  0.0 0.0 0.462 0.0
    dihedral_coeff 787  1.0 0.0 0.0 0.0
    dihedral_coeff 788  1.438 -0.124 0.264 0.0
    dihedral_coeff 789  0.0 0.0 0.347 0.0
    dihedral_coeff 790  0.0 0.0 0.347 0.0
    dihedral_coeff 791  0.0 0.0 0.0 0.0
    dihedral_coeff 792  0.0 0.0 0.0 0.0
    dihedral_coeff 793  1.7 -0.6 0.0 0.0
    dihedral_coeff 794  0.0 0.0 0.0 0.0
    dihedral_coeff 795  0.0 3.9 0.0 0.0
    dihedral_coeff 796  0.0 7.25 0.0 0.0
    dihedral_coeff 797  0.0 5.0 0.0 0.0
    dihedral_coeff 798  0.0 10.75 0.0 0.0
    dihedral_coeff 799  1.3 -0.05 0.2 0.0
    dihedral_coeff 800  1.3 -0.05 0.2 0.0
    # The following force field parameters were converted from
    # the tinker parameter file (oplsaa.prm) and then edited by hand:
    # Thanks to David Huang (adelaide.edu.au) for the corrections:

    improper_coeff 1  10.5 180.0  # (moltemplate)
    # <==> "imptors 0 0 3 4  21.000 180.0 2" in oplsaa.prm (tinker)
    # <==> "define improper_O_C_X_Y 180.0 43.93200 2" in oplsaa.ff (gromacs)

    improper_coeff 2  10.5 180.0  # (moltemplate)
    # <==> "imptors 0 0 3 52  21.000 180.0 2" in oplsaa.prm (tinker)
    # <==> "define improper_O_C_X_Y 180.0 43.93200 2" in oplsaa.ff (gromacs)

    improper_coeff 3  1.0 180.0  # (moltemplate)
    # <==> "imptors 0 0 24 0  5.000 180.0 2" in oplsaa.prm (tinker) - INCORRECT?
    # <==> "define improper_Z_N_X_Y 180.0 4.18400 2" in oplsaa.ff (gromacs)

    improper_coeff 4  15.0 180.0  # (moltemplate)
    # <==> "imptors 0 0 47 0  30.000 180.0 2" in oplsaa.prm (tinker)
    # <==> "define improper_Z_CM_X_Y 180.0 62.76000 2" in oplsaa.ff (gromacs)

    improper_coeff 5  1.1 180.0  # (moltemplate)
    # <==> "imptors 0 0 48 0  5.000 180.0 2" in oplsaa.prm (tinker) - INCORRECT?
    # <==> "define improper_Z_CA_X_Y 180.0 4.60240 2" in oplsaa.ff (gromacs)

    improper_coeff 6  10.5 180.0
    # <==> "define improper_N2_X_N2_N2 180.0 43.93200" in oplsaa.ff (gromacs)
    # <==> no corresponding line found in oplsaa.prm (tinker)

    # --- As of 2017-9-13, I am unsure if I should add this rule: ----
    # The gromacs file for oplsaa include the following line:
    # "define improper_X_NO_ON_NO 180.0 43.93200" in oplsaa.ff (gromacs)
    # but there is no corresponding line found in oplsaa.prm (tinker)
    # and there is no corresponding line from opls-a.prm (emc (BASF))
    # I'm not sure what the "NO" and "ON" correspond to.  If I had to guess,
    # the corresponding moltemplate line might be one of these two choices:
    # improper_coeff @improper:X_103_102_102  10.5 180.0  ?
    # improper_coeff @improper:X_102_103_103  10.5 180.0  ?
    # but I'd prefer to leave this out.

    pair_coeff 907 907  0.066 3.5
    pair_coeff 908 908  0.066 3.5
    pair_coeff 909 909  0.066 3.5
    pair_coeff 910 910  0.03 2.5
    pair_coeff 911 911  0.026290630975 2.5
    pair_coeff 912 912  0.076 3.55
    pair_coeff 913 913  0.03 2.42
    pair_coeff 914 914  0.076 3.55
    pair_coeff 915 915  0.076 3.55
    pair_coeff 916 916  0.17 3.12
    pair_coeff 917 917  0.0 0.0
    pair_coeff 918 918  0.17 3.07
    pair_coeff 919 919  0.0 0.0
    pair_coeff 920 920  0.17 3.07
    pair_coeff 921 921  0.0 0.0
    pair_coeff 922 922  0.03 2.5
    pair_coeff 923 923  0.076 3.55
    pair_coeff 924 924  0.08 3.5
    pair_coeff 925 925  0.08 3.5
    pair_coeff 926 926  0.08 3.5
    pair_coeff 927 927  0.08 3.5
    pair_coeff 928 928  0.08 3.5
    pair_coeff 929 929  0.08 3.5
    pair_coeff 930 930  0.08 3.5
    pair_coeff 931 931  0.076 3.55
    pair_coeff 932 932  0.105 3.1875
    pair_coeff 933 933  0.168 3.108
    pair_coeff 934 934  0.17 2.55
    pair_coeff 935 935  0.076 3.55
    pair_coeff 936 936  0.076 3.55
    pair_coeff 937 937  0.076 3.55
    pair_coeff 938 938  0.15 2.42
    pair_coeff 939 939  0.15 2.42
    pair_coeff 940 940  0.086 3.3
    pair_coeff 941 941  0.086 3.3
    pair_coeff 942 942  0.086 3.3
    dihedral_coeff 801  0.6446926386 -0.2143420172 0.1782194073 0.0
    dihedral_coeff 802  0.0 12.2502629063 0.0 0.0
    dihedral_coeff 803  -0.8050121893 0.3218905354 -0.1032768881 0.0
    dihedral_coeff 804  0.4821902486 0.1343683078 0.1777461759 0.0
    dihedral_coeff 805  0.00962596 -0.0145554 0.381091 0.0
    dihedral_coeff 806  0.0143774 0.033021 0.26687 0.0
    dihedral_coeff 807  -0.675785 -0.0160421 0.373199 0.0
    dihedral_coeff 808  1.31261 -0.266307 0.637867 0.0
    dihedral_coeff 809  2.69106 -0.849706 0.725731 0.0
    dihedral_coeff 810  3.11923 5.73771 0.0 0.0
    dihedral_coeff 811  0.0 5.73772 0.0 0.0
    dihedral_coeff 812  -0.00742471 0.00217734 0.111803 0.0
    dihedral_coeff 813  -1.7354 -1.24844 0.623897 0.0
    dihedral_coeff 814  0.0113337 0.0236209 0.429747 0.0
    dihedral_coeff 815  0.884988 -0.626905 -0.493344 0.0
    dihedral_coeff 816  -0.276019 1.23685 -0.670745 0.0
    dihedral_coeff 817  -0.0021152 0.0173542 -0.295208 0.0
    dihedral_coeff 818  -2.30738 -0.627326 0.621951 0.0
    dihedral_coeff 819  2.25871 -1.02408 1.0071 0.0
    dihedral_coeff 820  4.66787 -2.62698 1.3248 0.0
    dihedral_coeff 821  5.03208 -2.37742 1.23809 0.0


# ----------------- Charges Section -----------------

include "system.in.charges"
    #--------------------- IMPORTANT -----------------------
    # The first 56 atom types are not intended for use in an ordinary
    # (all-atom) simulation.  Instead, these atoms were intended for
    # use with "United Atom" molecules which lack hydrogen atoms.
    # (They belong to the OPLSUA force field, not the OPLSAA force field.)
    #--------------------------------------------------------
    set type 1 charge -0.22  # "Fluoride -CH2-F (UA)"    DON'T USE(OPLSUA)
Setting atom values ...
  0 settings made for charge
    set type 2 charge 0.22  # "Fluoride -CH2-F (UA)"     DON'T USE(OPLSUA)
Setting atom values ...
  0 settings made for charge
    set type 3 charge 0.55  # "Acetic Acid -COOH (UA)"   DON'T USE(OPLSUA)
Setting atom values ...
  0 settings made for charge
    set type 4 charge -0.5  # "Acetic Acid >C=O (UA)"    DON'T USE(OPLSUA)
Setting atom values ...
  0 settings made for charge
    set type 5 charge -0.58  # "Acetic Acid -OH (UA)"    DON'T USE(OPLSUA)
Setting atom values ...
  0 settings made for charge
    set type 6 charge 0.08  # "Acetic Acid CH3- (UA)"    DON'T USE(OPLSUA)
Setting atom values ...
  0 settings made for charge
    set type 7 charge 0.45  # "Acetic Acid -OH (UA)"     DON'T USE(OPLSUA)
Setting atom values ...
  0 settings made for charge
    set type 8 charge 0.0  # "Methane CH4 (UA)"          DON'T USE(OPLSUA)
Setting atom values ...
  0 settings made for charge
    set type 9 charge 0.0  # "Ethane CH3- (UA)"          DON'T USE(OPLSUA)
Setting atom values ...
  0 settings made for charge
    set type 10 charge 0.0  # "N-Alkane CH3- (UA)"       DON'T USE(OPLSUA)
Setting atom values ...
  0 settings made for charge
    set type 11 charge 0.0  # "Isobutane CH3- (UA)"      DON'T USE(OPLSUA)
Setting atom values ...
  0 settings made for charge
    set type 12 charge 0.0  # "Neopentane CH3- (UA)"     DON'T USE(OPLSUA)
Setting atom values ...
  0 settings made for charge
    set type 13 charge 0.0  # "Alkanes -CH2- (UA)"       DON'T USE(OPLSUA)
Setting atom values ...
  0 settings made for charge
    set type 14 charge 0.0  # "1-Alkene CH2= (UA)"       DON'T USE(OPLSUA)
Setting atom values ...
  0 settings made for charge
    set type 15 charge 0.0  # "Isobutane CH (UA)"        DON'T USE(OPLSUA)
Setting atom values ...
  0 settings made for charge
    set type 16 charge 0.0  # "2-Alkene -CH= (UA)"       DON'T USE(OPLSUA)
Setting atom values ...
  0 settings made for charge
    set type 17 charge 0.0  # "Aromatic CH (UA)"         DON'T USE(OPLSUA)
Setting atom values ...
  0 settings made for charge
    set type 18 charge 0.0  # "Neopentane C (UA)"        DON'T USE(OPLSUA)
Setting atom values ...
  0 settings made for charge
    set type 19 charge 0.0  # "Isobutene >C= (UA)"       DON'T USE(OPLSUA)
Setting atom values ...
  0 settings made for charge
    set type 20 charge -0.7  # "Alcohol OH (UA)"         DON'T USE(OPLSUA)
Setting atom values ...
  0 settings made for charge
    set type 21 charge 0.435  # "Alcohol OH (UA)"        DON'T USE(OPLSUA)
Setting atom values ...
  0 settings made for charge
    set type 22 charge 0.265  # "Methanol CH3- (UA)"     DON'T USE(OPLSUA)
Setting atom values ...
  0 settings made for charge
    set type 23 charge 0.265  # "Ethanol -CH2OH (UA)"    DON'T USE(OPLSUA)
Setting atom values ...
  0 settings made for charge
    set type 24 charge -0.47  # "Hydrogen Sulfide H2S"   DON'T USE(OPLSUA)
Setting atom values ...
  0 settings made for charge
    set type 25 charge -0.45  # "Alkyl Sulfide RSH (UA)" DON'T USE(OPLSUA)
Setting atom values ...
  0 settings made for charge
    set type 26 charge -0.47  # "Thioether RSR (UA)"     DON'T USE(OPLSUA)
Setting atom values ...
  0 settings made for charge
    set type 27 charge -0.3  # "Disulfide RSSR (UA)"     DON'T USE(OPLSUA)
Setting atom values ...
  0 settings made for charge
    set type 28 charge 0.235  # "Hydrogen Sulfide H2S"   DON'T USE(OPLSUA)
Setting atom values ...
  0 settings made for charge
    set type 29 charge 0.27  # "Alkyl Sulfide RSH (UA)"  DON'T USE(OPLSUA)
Setting atom values ...
  0 settings made for charge
    set type 30 charge 0.18  # "Methyl Sulfide CH3 (UA)" DON'T USE(OPLSUA)
Setting atom values ...
  0 settings made for charge
    set type 31 charge 0.18  # "Alkyl Sulfide CH2 (UA)"  DON'T USE(OPLSUA)
Setting atom values ...
  0 settings made for charge
    set type 32 charge 0.235  # "Thioether CH3 (UA)"     DON'T USE(OPLSUA)
Setting atom values ...
  0 settings made for charge
    set type 33 charge 0.235  # "Thioether CH2 (UA)"     DON'T USE(OPLSUA)
Setting atom values ...
  0 settings made for charge
    set type 34 charge 0.3  # "Disulfide CH3 (UA)"       DON'T USE(OPLSUA)
Setting atom values ...
  0 settings made for charge
    set type 35 charge 0.3  # "Disulfide CH2 (UA)"       DON'T USE(OPLSUA)
Setting atom values ...
  0 settings made for charge
    set type 36 charge -0.43  # "Acetonitrile -CN (UA)"  DON'T USE(OPLSUA)
Setting atom values ...
  0 settings made for charge
    set type 37 charge 0.28  # "Acetonitrile -CN (UA)"   DON'T USE(OPLSUA)
Setting atom values ...
  0 settings made for charge
    set type 38 charge 0.15  # "Acetonitrile CH3 (UA)"   DON'T USE(OPLSUA)
Setting atom values ...
  0 settings made for charge
    set type 39 charge 0.265  # "Isopropanol >CHOH (UA)" DON'T USE(OPLSUA)
Setting atom values ...
  0 settings made for charge
    set type 40 charge 0.265  # "t-Butanol COH (UA)"     DON'T USE(OPLSUA)
Setting atom values ...
  0 settings made for charge
    set type 41 charge -0.5  # "Ether ROR (UA)"          DON'T USE(OPLSUA)
Setting atom values ...
  0 settings made for charge
    set type 42 charge 0.25  # "Ether CH3-OR (UA)"       DON'T USE(OPLSUA)
Setting atom values ...
  0 settings made for charge
    set type 43 charge 0.25  # "Ether -CH2-OR (UA)"      DON'T USE(OPLSUA)
Setting atom values ...
  0 settings made for charge
    set type 44 charge 0.5  # "Methylene Chloride (UA)"  DON'T USE(OPLSUA)
Setting atom values ...
  0 settings made for charge
    set type 45 charge -0.25  # "Methylene Chloride (UA)"DON'T USE(OPLSUA)
Setting atom values ...
  0 settings made for charge
    set type 46 charge 0.42  # "Chloroform CHCl3 (UA)"   DON'T USE(OPLSUA)
Setting atom values ...
  0 settings made for charge
    set type 47 charge -0.14  # "Chloroform CHCl3 (UA)"  DON'T USE(OPLSUA)
Setting atom values ...
  0 settings made for charge
    set type 48 charge 0.248  # "Carbon Tetrachloride"   DON'T USE(OPLSUA)
Setting atom values ...
  0 settings made for charge
    set type 49 charge -0.062  # "Carbon Tetrachloride"  DON'T USE(OPLSUA)
Setting atom values ...
  0 settings made for charge
    set type 50 charge 0.139  # "DMSO >S=O (UA)"         DON'T USE(OPLSUA)
Setting atom values ...
  0 settings made for charge
    set type 51 charge -0.459  # "DMSO >S=O (UA)"        DON'T USE(OPLSUA)
Setting atom values ...
  0 settings made for charge
    set type 52 charge 0.16  # "DMSO CH3- (UA)"          DON'T USE(OPLSUA)
Setting atom values ...
  0 settings made for charge
    set type 53 charge -0.5  # "DMF C=O (UA)"            DON'T USE(OPLSUA)
Setting atom values ...
  0 settings made for charge
    set type 54 charge -0.57  # "DMF CON< (UA)"          DON'T USE(OPLSUA)
Setting atom values ...
  0 settings made for charge
    set type 55 charge 0.5  # "DMF C=O (UA)"             DON'T USE(OPLSUA)
Setting atom values ...
  0 settings made for charge
    set type 56 charge 0.285  # "DMF CH3- (UA)"          DON'T USE(OPLSUA)
Setting atom values ...
  0 settings made for charge
    #--------------------------------------------------------
    # ORDINARY (OPLSAA) ATOM TYPES BEGIN HERE:
    # Do not use the atom types above this line in an all-atom simulation.
    #--------------------------------------------------------
    set type 57 charge 0.0  # "Dummy Atom"
Setting atom values ...
  0 settings made for charge
    set type 58 charge 0.0  # "Helium Atom"
Setting atom values ...
  0 settings made for charge
    set type 59 charge 0.0  # "Neon Atom"
Setting atom values ...
  0 settings made for charge
    set type 60 charge 0.0  # "Argon Atom"
Setting atom values ...
  0 settings made for charge
    set type 61 charge 0.0  # "Krypton Atom"
Setting atom values ...
  0 settings made for charge
    set type 62 charge 0.0  # "Xenon Atom"
Setting atom values ...
  0 settings made for charge
    set type 63 charge -0.834  # "TIP3P Water O"
Setting atom values ...
  0 settings made for charge
    set type 64 charge 0.417  # "TIP3P Water H"
Setting atom values ...
  0 settings made for charge
    set type 65 charge 0.0  # "TIP4P Water O"
Setting atom values ...
  0 settings made for charge
    set type 66 charge 0.52  # "TIP4P Water H"
Setting atom values ...
  0 settings made for charge
    set type 67 charge -1.04  # "TIP4P Water M"
Setting atom values ...
  0 settings made for charge
    set type 68 charge -0.822  # "TIP3F Water O"
Setting atom values ...
  0 settings made for charge
    set type 69 charge 0.411  # "TIP3F Water H"
Setting atom values ...
  0 settings made for charge
    set type 70 charge 0.0  # "TIP4F Water O"
Setting atom values ...
  0 settings made for charge
    set type 71 charge 0.511  # "TIP4F Water H"
Setting atom values ...
  0 settings made for charge
    set type 72 charge -1.022  # "TIP4F Water M"
Setting atom values ...
  0 settings made for charge
    set type 73 charge 0.0  # "TIP5P Water O"
Setting atom values ...
  0 settings made for charge
    set type 74 charge 0.241  # "TIP5P Water H"
Setting atom values ...
  0 settings made for charge
    set type 75 charge -0.241  # "TIP5P Water LP"
Setting atom values ...
  0 settings made for charge
    set type 76 charge -0.82  # "SPC Water O"
Setting atom values ...
  0 settings made for charge
    set type 77 charge 0.41  # "SPC Water H"
Setting atom values ...
  0 settings made for charge
    set type 78 charge -1.02  # "Ammonia NH3"
Setting atom values ...
  0 settings made for charge
    set type 79 charge 0.34  # "Ammonia NH3"
Setting atom values ...
  0 settings made for charge
    set type 80 charge -0.18  # "Alkane CH3-"
Setting atom values ...
  0 settings made for charge
    set type 81 charge -0.12  # "Alkane -CH2-"
Setting atom values ...
  2 settings made for charge
    set type 82 charge -0.06  # "Alkane >CH-"
Setting atom values ...
  2 settings made for charge
    set type 83 charge -0.24  # "Methane CH4"
Setting atom values ...
  0 settings made for charge
    set type 84 charge 0.0  # "Alkane >C<"
Setting atom values ...
  0 settings made for charge
    set type 85 charge 0.06  # "Alkane H-C"
Setting atom values ...
  6 settings made for charge
    set type 86 charge 0.0  # "Alkene R2-C="
Setting atom values ...
  0 settings made for charge
    set type 87 charge -0.115  # "Alkene RH-C="
Setting atom values ...
  0 settings made for charge
    set type 88 charge -0.23  # "Alkene H2-C="
Setting atom values ...
  0 settings made for charge
    set type 89 charge 0.115  # "Alkene H-C="
Setting atom values ...
  0 settings made for charge
    set type 90 charge -0.115  # "Aromatic C"
Setting atom values ...
  0 settings made for charge
    set type 91 charge 0.115  # "Aromatic H-C"
Setting atom values ...
  0 settings made for charge
    set type 92 charge 0.0  # "Naphthalene Fusion C"
Setting atom values ...
  0 settings made for charge
    set type 93 charge -0.065  # "Ethyl Benzene CH3-"
Setting atom values ...
  0 settings made for charge
    set type 94 charge -0.005  # "Ethyl Benzene -CH2-"
Setting atom values ...
  0 settings made for charge
    set type 95 charge -0.115  # "Diene =CH-CH="
Setting atom values ...
  0 settings made for charge
    set type 96 charge -0.683  # "Alcohol -OH"
Setting atom values ...
  0 settings made for charge
    set type 97 charge 0.418  # "Alcohol -OH"
Setting atom values ...
  0 settings made for charge
    set type 98 charge 0.04  # "Methanol CH3-"
Setting atom values ...
  0 settings made for charge
    set type 99 charge 0.145  # "Alcohol CH3OH & RCH2OH"
Setting atom values ...
  0 settings made for charge
    set type 100 charge 0.205  # "Alcohol R2CHOH"
Setting atom values ...
  0 settings made for charge
    set type 101 charge 0.265  # "Alcohol R3COH"
Setting atom values ...
  0 settings made for charge
    set type 102 charge 0.1263  # "Trifluoroethanol -CH2-"
Setting atom values ...
  0 settings made for charge
    set type 103 charge 0.5323  # "Trifluoroethanol CF3-"
Setting atom values ...
  0 settings made for charge
    set type 104 charge -0.6351  # "Trifluoroethanol -OH"
Setting atom values ...
  0 settings made for charge
    set type 105 charge 0.4286  # "Trifluoroethanol -OH"
Setting atom values ...
  0 settings made for charge
    set type 106 charge -0.2057  # "Trifluoroethanol F"
Setting atom values ...
  0 settings made for charge
    set type 107 charge 0.0825  # "Trifluoroethanol -CH2-"
Setting atom values ...
  0 settings made for charge
    set type 108 charge 0.15  # "Phenol C-OH"
Setting atom values ...
  0 settings made for charge
    set type 109 charge -0.585  # "Phenol -OH"
Setting atom values ...
  0 settings made for charge
    set type 110 charge 0.435  # "Phenol -OH"
Setting atom values ...
  0 settings made for charge
    set type 111 charge -0.7  # "Diol -OH"
Setting atom values ...
  0 settings made for charge
    set type 112 charge 0.435  # "Diol -OH"
Setting atom values ...
  0 settings made for charge
    set type 113 charge -0.73  # "Triol -OH"
Setting atom values ...
  0 settings made for charge
    set type 114 charge 0.465  # "Triol -OH"
Setting atom values ...
  0 settings made for charge
    set type 115 charge 0.145  # "Diol & Triol -CH2OH"
Setting atom values ...
  0 settings made for charge
    set type 116 charge 0.205  # "Diol & Triol -CHROH"
Setting atom values ...
  0 settings made for charge
    set type 117 charge 0.265  # "Diol & Triol -CR2OH"
Setting atom values ...
  0 settings made for charge
    set type 118 charge 0.06  # "Diol & Triol H-COH"
Setting atom values ...
  0 settings made for charge
    set type 119 charge -0.17  # "Diphenyl Ether"
Setting atom values ...
  0 settings made for charge
    set type 120 charge 0.0  # "Diene =CR-CR="
Setting atom values ...
  0 settings made for charge
    set type 121 charge -0.285  # "Anisole -OCH3"
Setting atom values ...
  0 settings made for charge
    set type 122 charge -0.4  # "Dialkyl Ether -O-"
Setting atom values ...
  0 settings made for charge
    set type 123 charge 0.11  # "Methyl Ether CH3OR"
Setting atom values ...
  0 settings made for charge
    set type 124 charge 0.14  # "Ethyl Ether -CH2OR"
Setting atom values ...
  0 settings made for charge
    set type 125 charge 0.17  # "Isopropyl Ether >CHOR"
Setting atom values ...
  0 settings made for charge
    set type 126 charge 0.2  # "t-Butyl Ether COR"
Setting atom values ...
  0 settings made for charge
    set type 127 charge 0.03  # "Alkyl Ether H-COR"
Setting atom values ...
  0 settings made for charge
    set type 128 charge -0.4  # "Acetal RO-CR2OX"
Setting atom values ...
  0 settings made for charge
    set type 129 charge -0.7  # "Hemiacetal -OH"
Setting atom values ...
  0 settings made for charge
    set type 130 charge 0.435  # "Hemiacetal -OH"
Setting atom values ...
  0 settings made for charge
    set type 131 charge 0.2  # "Acetal RO-CH2-OR"
Setting atom values ...
  0 settings made for charge
    set type 132 charge 0.1  # "Acetal RO-CH2-OR"
Setting atom values ...
  0 settings made for charge
    set type 133 charge 0.265  # "Hemiacetal RO-CH2-OH"
Setting atom values ...
  0 settings made for charge
    set type 134 charge 0.1  # "Hemiacetal RO-CH2-OH"
Setting atom values ...
  0 settings made for charge
    set type 135 charge 0.3  # "Acetal RO-CHR-OR"
Setting atom values ...
  0 settings made for charge
    set type 136 charge 0.1  # "Acetal RO-CHR-OR"
Setting atom values ...
  0 settings made for charge
    set type 137 charge 0.365  # "Hemiacetal RO-CHR-OH"
Setting atom values ...
  0 settings made for charge
    set type 138 charge 0.1  # "Hemiacetal RO-CHR-OH"
Setting atom values ...
  0 settings made for charge
    set type 139 charge 0.4  # "Acetal RO-CR2-OR"
Setting atom values ...
  0 settings made for charge
    set type 140 charge 0.465  # "Hemiacetal RO-CR2-OH"
Setting atom values ...
  0 settings made for charge
    set type 141 charge 0.085  # "Anisole C-OCH3"
Setting atom values ...
  0 settings made for charge
    set type 142 charge -0.335  # "Thiol -SH"
Setting atom values ...
  0 settings made for charge
    set type 143 charge -0.47  # "Hydrogen Sulfide H2S"
Setting atom values ...
  0 settings made for charge
    set type 144 charge -0.435  # "Sulfide -S-"
Setting atom values ...
  0 settings made for charge
    set type 145 charge -0.2175  # "Disulfide -S-S-"
Setting atom values ...
  0 settings made for charge
    set type 146 charge 0.155  # "Thiol -SH"
Setting atom values ...
  0 settings made for charge
    set type 147 charge 0.235  # "Hydrogen Sulfide H2S"
Setting atom values ...
  0 settings made for charge
    set type 148 charge 0.06  # "Thiol -CH2-SH"
Setting atom values ...
  0 settings made for charge
    set type 149 charge 0.12  # "Thiol >CH-SH"
Setting atom values ...
  0 settings made for charge
    set type 150 charge 0.18  # "Thiol C-SH"
Setting atom values ...
  0 settings made for charge
    set type 151 charge 0.0375  # "Methyl Sulfide CH3-SR"
Setting atom values ...
  0 settings made for charge
    set type 152 charge 0.0975  # "Sulfide RCH2-SR"
Setting atom values ...
  0 settings made for charge
    set type 153 charge 0.1575  # "Sulfide R2CH-SR"
Setting atom values ...
  0 settings made for charge
    set type 154 charge 0.2175  # "Sulfide R3C-SR"
Setting atom values ...
  0 settings made for charge
    set type 155 charge 0.0375  # "Disulfide CH3-S-SR"
Setting atom values ...
  0 settings made for charge
    set type 156 charge 0.0975  # "Disulfide RCH2-S-SR"
Setting atom values ...
  0 settings made for charge
    set type 157 charge 0.1575  # "Disulfide R2CH-S-SR"
Setting atom values ...
  0 settings made for charge
    set type 158 charge 0.2175  # "Disulfide R3C-S-SR"
Setting atom values ...
  0 settings made for charge
    set type 159 charge 0.0  # "Methanethiol CH3-SH"
Setting atom values ...
  0 settings made for charge
    set type 160 charge 0.2  # "Benzyl Alcohol -CH2OH"
Setting atom values ...
  0 settings made for charge
    set type 161 charge 0.26  # "Benzyl Alcohol -CHROH"
Setting atom values ...
  0 settings made for charge
    set type 162 charge 0.32  # "Benzyl Alcohol -CR2OH"
Setting atom values ...
  0 settings made for charge
    set type 163 charge -0.055  # "Benzyl Alcohol/Nitrile"
Setting atom values ...
  0 settings made for charge
    set type 164 charge -0.32  # "Thioanisole -SCH3"
Setting atom values ...
  0 settings made for charge
    set type 165 charge 0.08  # "RCH2-NH2 & GLY CA"
Setting atom values ...
  0 settings made for charge
    set type 166 charge 0.14  # "RCHR-NH2 & ALA CA"
Setting atom values ...
  0 settings made for charge
    set type 167 charge 0.2  # "R3C-NH2 & AIB CA"
Setting atom values ...
  0 settings made for charge
    set type 168 charge -0.12  # "Chloroalkene Cl-CH="
Setting atom values ...
  0 settings made for charge
    set type 169 charge 0.005  # "Chloroalkene Cl-CH="
Setting atom values ...
  0 settings made for charge
    set type 170 charge 0.1025  # "Thioanisole C-SCH3"
Setting atom values ...
  0 settings made for charge
    set type 171 charge 0.14  # "Amide -NH-CHR2"
Setting atom values ...
  0 settings made for charge
    set type 172 charge 0.2  # "Amide -NH-CR3"
Setting atom values ...
  0 settings made for charge
    set type 173 charge 0.7  # "Benzophenone C=O"
Setting atom values ...
  0 settings made for charge
    set type 174 charge 0.565  # "Benzaldehyde C=O"
Setting atom values ...
  0 settings made for charge
    set type 175 charge 0.585  # "Acetophenone C=O"
Setting atom values ...
  0 settings made for charge
    set type 176 charge 0.615  # "Benzamide C=O"
Setting atom values ...
  0 settings made for charge
    set type 177 charge 0.5  # "Amide C=O"
Setting atom values ...
  0 settings made for charge
    set type 178 charge -0.5  # "Amide C=O"
Setting atom values ...
  0 settings made for charge
    set type 179 charge -0.76  # "Amide -CO-NH2"
Setting atom values ...
  0 settings made for charge
    set type 180 charge -0.5  # "Amide -CO-NHR"
Setting atom values ...
  0 settings made for charge
    set type 181 charge -0.14  # "Amide -CO-NR2"
Setting atom values ...
  0 settings made for charge
    set type 182 charge 0.38  # "Amide -CO-NH2"
Setting atom values ...
  0 settings made for charge
    set type 183 charge 0.3  # "Amide -CO-NHR"
Setting atom values ...
  0 settings made for charge
    set type 184 charge 0.02  # "Amide -NH-CH3"
Setting atom values ...
  0 settings made for charge
    set type 185 charge -0.11  # "Amide -NR-CH3"
Setting atom values ...
  0 settings made for charge
    set type 186 charge 0.08  # "Amide -NH-CH2R"
Setting atom values ...
  0 settings made for charge
    set type 187 charge -0.05  # "Amide -NR-CH2R & PRO CD"
Setting atom values ...
  0 settings made for charge
    set type 188 charge 0.01  # "Amide -NR-CHR2 & PRO CA"
Setting atom values ...
  0 settings made for charge
    set type 189 charge 0.142  # "Urea C=O"
Setting atom values ...
  0 settings made for charge
    set type 190 charge -0.39  # "Urea C=O"
Setting atom values ...
  0 settings made for charge
    set type 191 charge -0.542  # "Urea -NH2"
Setting atom values ...
  0 settings made for charge
    set type 192 charge 0.333  # "Urea -NH2"
Setting atom values ...
  0 settings made for charge
    set type 193 charge -0.49  # "Imide -NH-"
Setting atom values ...
  0 settings made for charge
    set type 194 charge 0.42  # "Imide C=O"
Setting atom values ...
  0 settings made for charge
    set type 195 charge -0.42  # "Imide C=O"
Setting atom values ...
  0 settings made for charge
    set type 196 charge 0.37  # "Imide -NH-"
Setting atom values ...
  0 settings made for charge
    set type 197 charge 0.06  # "Formimide H-C=O"
Setting atom values ...
  0 settings made for charge
    set type 198 charge -0.12  # "Imide CH3-CONHCO-"
Setting atom values ...
  0 settings made for charge
    set type 199 charge -0.06  # "Imide -CH2-CONHCO-"
Setting atom values ...
  0 settings made for charge
    set type 200 charge 0.0  # "Imide >CH-CONHCO-"
Setting atom values ...
  0 settings made for charge
    set type 201 charge 0.06  # "Imide C-CONHCO-"
Setting atom values ...
  0 settings made for charge
    set type 202 charge 0.035  # "Benzonitrile C-CN"
Setting atom values ...
  0 settings made for charge
    set type 203 charge 0.395  # "Benzonitrile -CN"
Setting atom values ...
  0 settings made for charge
    set type 204 charge -0.43  # "Benzonitrile -CN"
Setting atom values ...
  0 settings made for charge
    set type 205 charge 0.18  # "Chlorobenzene C-Cl"
Setting atom values ...
  0 settings made for charge
    set type 206 charge -0.18  # "Chlorobenzene C-Cl"
Setting atom values ...
  0 settings made for charge
    set type 207 charge -0.385  # "N-Phenylacetamide N"
Setting atom values ...
  0 settings made for charge
    set type 208 charge 0.085  # "N-Phenylacetamide N-CA"
Setting atom values ...
  0 settings made for charge
    set type 209 charge 0.52  # "Carboxylic Acid -COOH"
Setting atom values ...
  0 settings made for charge
    set type 210 charge -0.44  # "Carboxylic Acid C=O"
Setting atom values ...
  0 settings made for charge
    set type 211 charge -0.53  # "Carboxylic Acid -OH"
Setting atom values ...
  0 settings made for charge
    set type 212 charge 0.45  # "Carboxylic Acid -COOH"
Setting atom values ...
  0 settings made for charge
    set type 213 charge 0.7  # "Carboxylate COO-"
Setting atom values ...
  0 settings made for charge
    set type 214 charge -0.8  # "Carboxylate COO-"
Setting atom values ...
  0 settings made for charge
    set type 215 charge -0.28  # "Carboxylate CH3-COO-"
Setting atom values ...
  0 settings made for charge
    set type 216 charge -0.22  # "Carboxylate RCH2-COO-"
Setting atom values ...
  0 settings made for charge
    set type 217 charge -0.16  # "Carboxylate R2CH-COO-"
Setting atom values ...
  0 settings made for charge
    set type 218 charge -0.1  # "Carboxylate R3C-COO-"
Setting atom values ...
  0 settings made for charge
    set type 219 charge 0.45  # "Aldehyde/Acyl Halide C=O"
Setting atom values ...
  0 settings made for charge
    set type 220 charge -0.45  # "Aldehyde/Acyl Halide C=O"
Setting atom values ...
  0 settings made for charge
    set type 221 charge 0.0  # "Aldehyde/Formamide H-C=O"
Setting atom values ...
  0 settings made for charge
    set type 222 charge 0.47  # "Ketone C=O"
Setting atom values ...
  0 settings made for charge
    set type 223 charge -0.47  # "Ketone C=O"
Setting atom values ...
  0 settings made for charge
    set type 224 charge 0.06  # "Acyl H-C-COX"
Setting atom values ...
  0 settings made for charge
    set type 225 charge 0.04  # "C-Terminal ALA CA"
Setting atom values ...
  0 settings made for charge
    set type 226 charge -0.02  # "C-Terminal GLY CA"
Setting atom values ...
  0 settings made for charge
    set type 227 charge 0.1  # "C-Terminal AIB CA"
Setting atom values ...
  0 settings made for charge
    set type 228 charge -0.09  # "C-Terminal PRO CA"
Setting atom values ...
  0 settings made for charge
    set type 229 charge -0.4  # "Ammonium NH4+"
Setting atom values ...
  0 settings made for charge
    set type 230 charge -0.3  # "Ammonium RNH3+"
Setting atom values ...
  0 settings made for charge
    set type 231 charge 0.0  # "Ammonium R4N+"
Setting atom values ...
  0 settings made for charge
    set type 232 charge 0.35  # "Ammonium NH4+"
Setting atom values ...
  0 settings made for charge
    set type 233 charge 0.33  # "Ammonium RNH3+"
Setting atom values ...
  0 settings made for charge
    set type 234 charge 0.13  # "Ammonium CH3-NH3+"
Setting atom values ...
  0 settings made for charge
    set type 235 charge 0.19  # "CH3NH3+/N-Term GLY CA"
Setting atom values ...
  0 settings made for charge
    set type 236 charge 0.25  # "RCH2NH3+/N-Term ALA CA"
Setting atom values ...
  0 settings made for charge
    set type 237 charge 0.31  # "R3C-NH3+/N-Term AIB CA"
Setting atom values ...
  0 settings made for charge
    set type 238 charge 0.23  # "N-Terminal PRO CA"
Setting atom values ...
  0 settings made for charge
    set type 239 charge 0.17  # "N-Terminal PRO CD"
Setting atom values ...
  0 settings made for charge
    set type 240 charge 0.11  # "Ammonium CH3-NH2R+"
Setting atom values ...
  0 settings made for charge
    set type 241 charge 0.09  # "GLY Zwitterion CA"
Setting atom values ...
  0 settings made for charge
    set type 242 charge 0.15  # "ALA Zwitterion CA"
Setting atom values ...
  0 settings made for charge
    set type 243 charge -0.8  # "Guanidinium -NH2"
Setting atom values ...
  0 settings made for charge
    set type 244 charge 0.46  # "Guanidinium -NH2"
Setting atom values ...
  0 settings made for charge
    set type 245 charge 0.64  # "Guanidinium C+"
Setting atom values ...
  0 settings made for charge
    set type 246 charge -0.7  # "Guanidinium -NHR"
Setting atom values ...
  0 settings made for charge
    set type 247 charge 0.44  # "Guanidinium -NHR"
Setting atom values ...
  0 settings made for charge
    set type 248 charge 0.2  # "Me Guanidinium CH3-"
Setting atom values ...
  0 settings made for charge
    set type 249 charge -0.11  # "Et Guanidinium CH3-"
Setting atom values ...
  0 settings made for charge
    set type 250 charge 0.19  # "Et Guan -CH2- & ARG CD"
Setting atom values ...
  0 settings made for charge
    set type 251 charge -0.05  # "Pr Guan -CH2- & ARG CG"
Setting atom values ...
  0 settings made for charge
    set type 252 charge -0.2  # "Ammonium R2NH2+"
Setting atom values ...
  0 settings made for charge
    set type 253 charge 0.31  # "Ammonium R2NH2+"
Setting atom values ...
  0 settings made for charge
    set type 254 charge -0.46  # "Diaminopyridine N1"
Setting atom values ...
  0 settings made for charge
    set type 255 charge 0.36  # "Diaminopyridine C2"
Setting atom values ...
  0 settings made for charge
    set type 256 charge -0.85  # "Diaminopyridine -NH2"
Setting atom values ...
  0 settings made for charge
    set type 257 charge 0.37  # "Diaminopyridine -NH2"
Setting atom values ...
  0 settings made for charge
    set type 258 charge -0.15  # "Diaminopyridine C3"
Setting atom values ...
  0 settings made for charge
    set type 259 charge 0.1  # "Diaminopyridine H3"
Setting atom values ...
  0 settings made for charge
    set type 260 charge -0.04  # "Diaminopyridine C4"
Setting atom values ...
  0 settings made for charge
    set type 261 charge 0.1  # "Diaminopyridine H4"
Setting atom values ...
  0 settings made for charge
    set type 262 charge -0.6  # "Uracil & Thymine N1"
Setting atom values ...
  0 settings made for charge
    set type 263 charge 0.5  # "Uracil & Thymine C2"
Setting atom values ...
  0 settings made for charge
    set type 264 charge -0.51  # "Uracil & Thymine N3"
Setting atom values ...
  0 settings made for charge
    set type 265 charge 0.45  # "Uracil & Thymine C4"
Setting atom values ...
  0 settings made for charge
    set type 266 charge -0.07  # "Uracil & Thymine C5"
Setting atom values ...
  0 settings made for charge
    set type 267 charge 0.08  # "Uracil & Thymine C6"
Setting atom values ...
  0 settings made for charge
    set type 268 charge 0.41  # "Uracil & Thymine HN1"
Setting atom values ...
  0 settings made for charge
    set type 269 charge -0.4  # "Uracil & Thymine O2"
Setting atom values ...
  0 settings made for charge
    set type 270 charge 0.36  # "Uracil & Thymine HN3"
Setting atom values ...
  0 settings made for charge
    set type 271 charge -0.42  # "Uracil & Thymine O4"
Setting atom values ...
  0 settings made for charge
    set type 272 charge 0.1  # "Uracil & Thymine HC5"
Setting atom values ...
  0 settings made for charge
    set type 273 charge 0.1  # "Uracil & Thymine HC6"
Setting atom values ...
  0 settings made for charge
    set type 274 charge -0.14  # "Thymine CH3-"
Setting atom values ...
  0 settings made for charge
    set type 275 charge 0.08  # "Thymine CH3-"
Setting atom values ...
  0 settings made for charge
    set type 276 charge -0.56  # "Cytosine N1"
Setting atom values ...
  0 settings made for charge
    set type 277 charge 0.55  # "Cytosine C2"
Setting atom values ...
  0 settings made for charge
    set type 278 charge -0.54  # "Cytosine N3"
Setting atom values ...
  0 settings made for charge
    set type 279 charge 0.46  # "Cytosine C4"
Setting atom values ...
  0 settings made for charge
    set type 280 charge -0.06  # "Cytosine C5"
Setting atom values ...
  0 settings made for charge
    set type 281 charge 0.1  # "Cytosine C6"
Setting atom values ...
  0 settings made for charge
    set type 282 charge 0.38  # "Cytosine HN1"
Setting atom values ...
  0 settings made for charge
    set type 283 charge -0.48  # "Cytosine O2"
Setting atom values ...
  0 settings made for charge
    set type 284 charge -0.79  # "Cytosine NH2-"
Setting atom values ...
  0 settings made for charge
    set type 285 charge 0.385  # "Cytosine NH2- (N3)"
Setting atom values ...
  0 settings made for charge
    set type 286 charge 0.355  # "Cytosine NH2- (C5)"
Setting atom values ...
  0 settings made for charge
    set type 287 charge 0.1  # "Cytosine HC5"
Setting atom values ...
  0 settings made for charge
    set type 288 charge 0.1  # "Cytosine HC6"
Setting atom values ...
  0 settings made for charge
    set type 289 charge -0.53  # "Adenine N1"
Setting atom values ...
  0 settings made for charge
    set type 290 charge 0.22  # "Adenine C2"
Setting atom values ...
  0 settings made for charge
    set type 291 charge -0.55  # "Adenine N3"
Setting atom values ...
  0 settings made for charge
    set type 292 charge 0.38  # "Adenine C4"
Setting atom values ...
  0 settings made for charge
    set type 293 charge 0.15  # "Adenine C5"
Setting atom values ...
  0 settings made for charge
    set type 294 charge 0.44  # "Adenine C6"
Setting atom values ...
  0 settings made for charge
    set type 295 charge -0.49  # "Adenine & Guanine N7"
Setting atom values ...
  0 settings made for charge
    set type 296 charge 0.2  # "Adenine & Guanine C8"
Setting atom values ...
  0 settings made for charge
    set type 297 charge -0.5  # "Adenine & Guanine N9"
Setting atom values ...
  0 settings made for charge
    set type 298 charge 0.2  # "Adenine HC2"
Setting atom values ...
  0 settings made for charge
    set type 299 charge -0.81  # "Adenine NH2-"
Setting atom values ...
  0 settings made for charge
    set type 300 charge 0.385  # "Adenine NH2- (N1)"
Setting atom values ...
  0 settings made for charge
    set type 301 charge 0.355  # "Adenine NH2- (C5)"
Setting atom values ...
  0 settings made for charge
    set type 302 charge 0.2  # "Adenine & Guanine HC8"
Setting atom values ...
  0 settings made for charge
    set type 303 charge 0.35  # "Adenine & Guanine HN9"
Setting atom values ...
  0 settings made for charge
    set type 304 charge -0.56  # "Guanine N1"
Setting atom values ...
  0 settings made for charge
    set type 305 charge 0.46  # "Guanine C2"
Setting atom values ...
  0 settings made for charge
    set type 306 charge -0.51  # "Guanine N3"
Setting atom values ...
  0 settings made for charge
    set type 307 charge 0.34  # "Guanine C4"
Setting atom values ...
  0 settings made for charge
    set type 308 charge 0.12  # "Guanine C5"
Setting atom values ...
  0 settings made for charge
    set type 309 charge 0.52  # "Guanine C6"
Setting atom values ...
  0 settings made for charge
    set type 310 charge 0.38  # "Guanine HN1"
Setting atom values ...
  0 settings made for charge
    set type 311 charge -0.8  # "Guanine NH2-"
Setting atom values ...
  0 settings made for charge
    set type 312 charge 0.4  # "Guanine NH2-"
Setting atom values ...
  0 settings made for charge
    set type 313 charge -0.51  # "Guanine O6"
Setting atom values ...
  0 settings made for charge
    set type 314 charge -0.01  # "9-Me A & 9-Me-G CH3-"
Setting atom values ...
  0 settings made for charge
    set type 315 charge 0.12  # "9-Me-A & 9-Me-G CH3-"
Setting atom values ...
  0 settings made for charge
    set type 316 charge -0.01  # "1-Me-U & 1-Me-T CH3-"
Setting atom values ...
  0 settings made for charge
    set type 317 charge 0.14  # "1-Me-U & 1-Me-T CH3-"
Setting atom values ...
  0 settings made for charge
    set type 318 charge -0.01  # "1-Me-Cytosine CH3-"
Setting atom values ...
  0 settings made for charge
    set type 319 charge 0.13  # "1-Me-Cytosine CH3-"
Setting atom values ...
  0 settings made for charge
    set type 320 charge -0.64  # "CytosineH+ N1"
Setting atom values ...
  0 settings made for charge
    set type 321 charge 0.65  # "CytosineH+ C2"
Setting atom values ...
  0 settings made for charge
    set type 322 charge -0.74  # "CytosineH+ N3"
Setting atom values ...
  0 settings made for charge
    set type 323 charge 0.66  # "CytosineH+ C4"
Setting atom values ...
  0 settings made for charge
    set type 324 charge -0.06  # "CytosineH+ C5"
Setting atom values ...
  0 settings made for charge
    set type 325 charge 0.1  # "CytosineH+ C6"
Setting atom values ...
  0 settings made for charge
    set type 326 charge 0.49  # "CytosineH+ HN1"
Setting atom values ...
  0 settings made for charge
    set type 327 charge -0.3  # "CytosineH+ O2"
Setting atom values ...
  0 settings made for charge
    set type 328 charge 0.48  # "CytosineH+ HN3"
Setting atom values ...
  0 settings made for charge
    set type 329 charge -0.81  # "CytosineH+ NH2-"
Setting atom values ...
  0 settings made for charge
    set type 330 charge 0.46  # "CytosineH+ NH2- (N3)"
Setting atom values ...
  0 settings made for charge
    set type 331 charge 0.43  # "CytosineH+ NH2- (C5)"
Setting atom values ...
  0 settings made for charge
    set type 332 charge 0.14  # "CytosineH+ HC5"
Setting atom values ...
  0 settings made for charge
    set type 333 charge 0.14  # "CytosineH+ HC6"
Setting atom values ...
  0 settings made for charge
    set type 334 charge 0.01  # "1-Me-CytosineH+ CH3-"
Setting atom values ...
  0 settings made for charge
    set type 335 charge 0.16  # "1-Me-CytosineH+ CH3-"
Setting atom values ...
  0 settings made for charge
    set type 336 charge 0.78  # "DiMePhosphate P (UA)"
Setting atom values ...
  0 settings made for charge
    set type 337 charge -0.66  # "DiMePhosphate O=P-O (UA)"
Setting atom values ...
  0 settings made for charge
    set type 338 charge -0.43  # "DiMePhosphate CH3-O (UA)"
Setting atom values ...
  0 settings made for charge
    set type 339 charge 0.2  # "DiMePhosphate CH3-O (UA)"
Setting atom values ...
  0 settings made for charge
    set type 340 charge 0.18  # "Trifluorothymine CF3-"
Setting atom values ...
  0 settings made for charge
    set type 341 charge -0.06  # "Chloroalkene Cl2-C="
Setting atom values ...
  0 settings made for charge
    set type 342 charge 0.12  # "Chloroalkene Cl2-C="
Setting atom values ...
  0 settings made for charge
    set type 343 charge -1.0  # "Fluoride Ion F-"
Setting atom values ...
  0 settings made for charge
    set type 344 charge -1.0  # "Chloride Ion Cl-"
Setting atom values ...
  0 settings made for charge
    set type 345 charge -1.0  # "Bromide Ion Br-"
Setting atom values ...
  0 settings made for charge
    set type 346 charge -1.0  # "Iodide Ion I-"
Setting atom values ...
  0 settings made for charge
    set type 347 charge 1.0  # "Ammonium Ion NH4+ (UA)"
Setting atom values ...
  0 settings made for charge
    set type 348 charge 1.0  # "Lithium Ion Li+"
Setting atom values ...
  0 settings made for charge
    set type 349 charge 1.0  # "Sodium Ion Na+"
Setting atom values ...
  0 settings made for charge
    set type 350 charge 1.0  # "Potassium Ion K+"
Setting atom values ...
  0 settings made for charge
    set type 351 charge 1.0  # "Rubidium Ion Rb+"
Setting atom values ...
  0 settings made for charge
    set type 352 charge 1.0  # "Cesium Ion Cs+"
Setting atom values ...
  0 settings made for charge
    set type 353 charge 2.0  # "Magnesium Ion Mg+2"
Setting atom values ...
  0 settings made for charge
    set type 354 charge 2.0  # "Calcium Ion Ca+2"
Setting atom values ...
  0 settings made for charge
    set type 355 charge 2.0  # "Strontium Ion Sr+2"
Setting atom values ...
  0 settings made for charge
    set type 356 charge 2.0  # "Barium Ion Ba+2"
Setting atom values ...
  0 settings made for charge
    set type 357 charge -0.4  # "Methyl Thiolate CH3S-"
Setting atom values ...
  0 settings made for charge
    set type 358 charge 0.1  # "Methyl Thiolate CH3S-"
Setting atom values ...
  0 settings made for charge
    set type 359 charge -0.9  # "Methyl Thiolate CH3S-"
Setting atom values ...
  0 settings made for charge
    set type 360 charge -0.2  # "Methoxide CH3O-"
Setting atom values ...
  0 settings made for charge
    set type 361 charge 0.06  # "Methoxide CH3O-"
Setting atom values ...
  0 settings made for charge
    set type 362 charge -0.98  # "Methoxide CH3O-"
Setting atom values ...
  0 settings made for charge
    set type 363 charge -1.07  # "Nitrile Anion CNCH2-"
Setting atom values ...
  0 settings made for charge
    set type 364 charge 0.19  # "Nitrile Anion CNCH2-"
Setting atom values ...
  0 settings made for charge
    set type 365 charge 0.51  # "Nitrile Anion CNCH2-"
Setting atom values ...
  0 settings made for charge
    set type 366 charge -0.82  # "Nitrile Anion CNCH2-"
Setting atom values ...
  0 settings made for charge
    set type 367 charge -0.3  # "Me Amine Anion CH3NH-"
Setting atom values ...
  0 settings made for charge
    set type 368 charge 0.07  # "Me Amine Anion CH3NH-"
Setting atom values ...
  0 settings made for charge
    set type 369 charge -1.31  # "Me Amine Anion CH3NH-"
Setting atom values ...
  0 settings made for charge
    set type 370 charge 0.4  # "Methyl Amine Anion"
Setting atom values ...
  0 settings made for charge
    set type 371 charge -0.4  # "Ethyl Anion CH3-CH2-"
Setting atom values ...
  0 settings made for charge
    set type 372 charge 0.08  # "Ethyl Anion CH3-CH2-"
Setting atom values ...
  0 settings made for charge
    set type 373 charge 0.0  # "Ethyl Anion CH3-CH2-"
Setting atom values ...
  0 settings made for charge
    set type 374 charge 0.07  # "Ethyl Anion CH3-CH2-"
Setting atom values ...
  0 settings made for charge
    set type 375 charge -0.98  # "Ethyl Anion CH3-CH2-"
Setting atom values ...
  0 settings made for charge
    set type 376 charge -1.3  # "Hydroxide Ion OH-"
Setting atom values ...
  0 settings made for charge
    set type 377 charge 0.3  # "Hydroxide Ion OH-"
Setting atom values ...
  0 settings made for charge
    set type 378 charge 2.5  # "Uranyl Ion UO2+"
Setting atom values ...
  0 settings made for charge
    set type 379 charge -0.25  # "Uranyl Ion UO2+"
Setting atom values ...
  0 settings made for charge
    set type 380 charge -0.865  # "GTP O-(POn)2"
Setting atom values ...
  0 settings made for charge
    set type 381 charge 1.62  # "DiMe Phosphate P"
Setting atom values ...
  0 settings made for charge
    set type 382 charge -0.92  # "DiMe Phosphate O=P-O"
Setting atom values ...
  0 settings made for charge
    set type 383 charge -0.6  # "DiMe Phosphate CH3-O"
Setting atom values ...
  0 settings made for charge
    set type 384 charge 0.3  # "DiMe Phosphate CH3-O"
Setting atom values ...
  0 settings made for charge
    set type 385 charge -0.03  # "DiMe Phosphate CH3-O"
Setting atom values ...
  0 settings made for charge
    set type 386 charge 1.92  # "Me Phosphate P"
Setting atom values ...
  0 settings made for charge
    set type 387 charge -1.12  # "Me Phosphate O=PO2"
Setting atom values ...
  0 settings made for charge
    set type 388 charge -0.7  # "Me Phosphate CH3-O"
Setting atom values ...
  0 settings made for charge
    set type 389 charge 0.44  # "Me Phosphate CH3-O"
Setting atom values ...
  0 settings made for charge
    set type 390 charge -0.1  # "Me Phosphate CH3-O"
Setting atom values ...
  0 settings made for charge
    set type 391 charge 1.62  # "Me MePhosphonate P"
Setting atom values ...
  0 settings made for charge
    set type 392 charge -0.97  # "Me MePhosphonate O=P-O"
Setting atom values ...
  0 settings made for charge
    set type 393 charge -0.63  # "Me MePhosphonate CH3-O"
Setting atom values ...
  0 settings made for charge
    set type 394 charge 0.28  # "Me MePhosphonate CH3-O"
Setting atom values ...
  0 settings made for charge
    set type 395 charge -0.02  # "Me MePhosphonate CH3-O"
Setting atom values ...
  0 settings made for charge
    set type 396 charge -0.51  # "Me MePhosphonate CH3-P"
Setting atom values ...
  0 settings made for charge
    set type 397 charge 0.08  # "Me MePhosphonate CH3-P"
Setting atom values ...
  0 settings made for charge
    set type 398 charge -0.14  # "Bz MePhosphonate Cipso"
Setting atom values ...
  0 settings made for charge
    set type 399 charge 0.32  # "Bz MePhosphonate CH3-O"
Setting atom values ...
  0 settings made for charge
    set type 400 charge 0.02  # "Bz MePhosphonate CH3-O"
Setting atom values ...
  0 settings made for charge
    set type 401 charge -0.04  # "Me BzPhosphonate Cipso"
Setting atom values ...
  0 settings made for charge
    set type 402 charge -0.47  # "Me BzPhosphonate CH3-P"
Setting atom values ...
  0 settings made for charge
    set type 403 charge 0.12  # "Me BzPhosphonate CH3-P"
Setting atom values ...
  0 settings made for charge
    set type 404 charge 0.14  # "Ph Phosphate Cipso"
Setting atom values ...
  0 settings made for charge
    set type 405 charge 0.24  # "Barbiturate C6(R2)"
Setting atom values ...
  0 settings made for charge
    set type 406 charge 0.51  # "Ester -COOR"
Setting atom values ...
  2 settings made for charge
    set type 407 charge -0.43  # "Ester C=O"
Setting atom values ...
  2 settings made for charge
    set type 408 charge -0.33  # "Ester CO-O-R"
Setting atom values ...
  2 settings made for charge
    set type 409 charge 0.16  # "Methyl Ester -OCH3"
Setting atom values ...
  0 settings made for charge
    set type 410 charge 0.03  # "Ester -OCH<"
Setting atom values ...
  0 settings made for charge
    set type 411 charge 0.635  # "Benzoic Acid -COOH"
Setting atom values ...
  0 settings made for charge
    set type 412 charge 0.625  # "Aryl Ester -COOR"
Setting atom values ...
  0 settings made for charge
    set type 413 charge 0.135  # "Phenyl Ester Cipso"
Setting atom values ...
  0 settings made for charge
    set type 414 charge -0.215  # "Phenyl Ester -OPh"
Setting atom values ...
  0 settings made for charge
    set type 415 charge 1.48  # "Sulfonamide -SO2N<"
Setting atom values ...
  1 settings made for charge
    set type 416 charge -0.68  # "Sulfonamide -SO2N<"
Setting atom values ...
  2 settings made for charge
    set type 417 charge -0.54  # "Sulfonamide CH3-S"
Setting atom values ...
  1 settings made for charge
    set type 418 charge 0.18  # "Sulfonamide CH3-S"
Setting atom values ...
  1 settings made for charge
    set type 419 charge -1.0  # "Sulfonamide -SO2NH2"
Setting atom values ...
  1 settings made for charge
    set type 420 charge 0.44  # "Sulfonamide -SO2NH2"
Setting atom values ...
  0 settings made for charge
    set type 421 charge -0.8  # "Sulfonamide -SO2NHR"
Setting atom values ...
  0 settings made for charge
    set type 422 charge 0.41  # "Sulfonamide -SO2NHR"
Setting atom values ...
  0 settings made for charge
    set type 423 charge 0.18  # "N-Me Sulfonamide CH3-"
Setting atom values ...
  0 settings made for charge
    set type 424 charge 0.03  # "N-Me Sulfonamide CH3-"
Setting atom values ...
  0 settings made for charge
    set type 425 charge 0.39  # "Sulfonamide N-CH2-R"
Setting atom values ...
  0 settings made for charge
    set type 426 charge -0.06  # "Sulfonamide N-CH2-R"
Setting atom values ...
  0 settings made for charge
    set type 427 charge -0.18  # "N-Et Sulfonamide CH3-"
Setting atom values ...
  0 settings made for charge
    set type 428 charge 0.06  # "N-Et Sulfonamide CH3-"
Setting atom values ...
  0 settings made for charge
    set type 429 charge 0.0  # "Aryl Sulfonamide C-SO2N"
Setting atom values ...
  0 settings made for charge
    set type 430 charge 0.03  # "Aryl Sulfoxide C-S=O"
Setting atom values ...
  0 settings made for charge
    set type 431 charge 0.19  # "Et Ester -OCH2R"
Setting atom values ...
  2 settings made for charge
    set type 432 charge 0.22  # "i-Pr Ester -OCHR2"
Setting atom values ...
  0 settings made for charge
    set type 433 charge 0.25  # "t-Bu Ester -OCR3"
Setting atom values ...
  0 settings made for charge
    set type 434 charge 1.374  # "Sulfone R-SO2-R"
Setting atom values ...
  0 settings made for charge
    set type 435 charge -0.687  # "Sulfone R-SO2-R"
Setting atom values ...
  0 settings made for charge
    set type 436 charge 0.245  # "Alkyl Aryl Sulfoxide"
Setting atom values ...
  0 settings made for charge
    set type 437 charge 0.13  # "Dialkyl Sulfoxide"
Setting atom values ...
  0 settings made for charge
    set type 438 charge -0.42  # "Sulfoxide R-SO-R"
Setting atom values ...
  0 settings made for charge
    set type 439 charge -0.035  # "Sulfoxide CH3-SO-R"
Setting atom values ...
  0 settings made for charge
    set type 440 charge 0.025  # "Sulfoxide -CH2-SO-R"
Setting atom values ...
  0 settings made for charge
    set type 441 charge 0.075  # "TRP CG"
Setting atom values ...
  0 settings made for charge
    set type 442 charge -0.055  # "TRP CD"
Setting atom values ...
  0 settings made for charge
    set type 443 charge 0.13  # "TRP CE"
Setting atom values ...
  0 settings made for charge
    set type 444 charge -0.57  # "TRP NE, HID ND & HIE NE"
Setting atom values ...
  0 settings made for charge
    set type 445 charge 0.42  # "TRP HNE & HID/HIE HN"
Setting atom values ...
  0 settings made for charge
    set type 446 charge -0.005  # "HIS CB"
Setting atom values ...
  0 settings made for charge
    set type 447 charge 0.295  # "HID & HIE CE1"
Setting atom values ...
  0 settings made for charge
    set type 448 charge -0.015  # "HID CD2 & HIE CG"
Setting atom values ...
  0 settings made for charge
    set type 449 charge 0.015  # "HID CG & HIE CD2"
Setting atom values ...
  0 settings made for charge
    set type 450 charge 0.385  # "HIP CE1"
Setting atom values ...
  0 settings made for charge
    set type 451 charge 0.215  # "HIP CG & CD2"
Setting atom values ...
  0 settings made for charge
    set type 452 charge -0.49  # "HID NE & HIE ND"
Setting atom values ...
  0 settings made for charge
    set type 453 charge -0.54  # "HIP ND & NE"
Setting atom values ...
  0 settings made for charge
    set type 454 charge 0.46  # "HIP HND & HNE"
Setting atom values ...
  0 settings made for charge
    set type 455 charge -0.115  # "TRP CD1"
Setting atom values ...
  0 settings made for charge
    set type 456 charge 0.055  # "i-Pr Benzene -CHMe2"
Setting atom values ...
  0 settings made for charge
    set type 457 charge 0.115  # "t-Bu Benzene -CMe3"
Setting atom values ...
  0 settings made for charge
    set type 458 charge -0.03  # "Vinyl Ether =CH-OR"
Setting atom values ...
  0 settings made for charge
    set type 459 charge 0.085  # "Vinyl Ether =CR-OR"
Setting atom values ...
  0 settings made for charge
    set type 460 charge 0.0  # "Biphenyl C1"
Setting atom values ...
  0 settings made for charge
    set type 461 charge -0.678  # "Pyridine N"
Setting atom values ...
  0 settings made for charge
    set type 462 charge 0.473  # "Pyridine C1"
Setting atom values ...
  0 settings made for charge
    set type 463 charge -0.447  # "Pyridine C2"
Setting atom values ...
  0 settings made for charge
    set type 464 charge 0.227  # "Pyridine C3"
Setting atom values ...
  0 settings made for charge
    set type 465 charge 0.012  # "Pyridine H1"
Setting atom values ...
  0 settings made for charge
    set type 466 charge 0.155  # "Pyridine H2"
Setting atom values ...
  0 settings made for charge
    set type 467 charge 0.065  # "Pyridine H3"
Setting atom values ...
  0 settings made for charge
    set type 468 charge -0.468  # "Pyrazine N"
Setting atom values ...
  0 settings made for charge
    set type 469 charge 0.192  # "Pyrazine CH"
Setting atom values ...
  0 settings made for charge
    set type 470 charge 0.042  # "Pyrazine CH"
Setting atom values ...
  0 settings made for charge
    set type 471 charge -0.839  # "Pyrimidine N"
Setting atom values ...
  0 settings made for charge
    set type 472 charge 0.874  # "Pyrimidine C2"
Setting atom values ...
  0 settings made for charge
    set type 473 charge 0.653  # "Pyrimidine C4"
Setting atom values ...
  0 settings made for charge
    set type 474 charge -0.689  # "Pyrimidine C5"
Setting atom values ...
  0 settings made for charge
    set type 475 charge -0.032  # "Pyrimidine HC2"
Setting atom values ...
  0 settings made for charge
    set type 476 charge 0.011  # "Pyrimidine HC4"
Setting atom values ...
  0 settings made for charge
    set type 477 charge 0.197  # "Pyrimidine HC5"
Setting atom values ...
  0 settings made for charge
    set type 478 charge -0.331  # "Pyridazine N"
Setting atom values ...
  0 settings made for charge
    set type 479 charge 0.378  # "Pyridazine C3"
Setting atom values ...
  0 settings made for charge
    set type 480 charge -0.16  # "Pyridazine C4"
Setting atom values ...
  0 settings made for charge
    set type 481 charge -0.009  # "Pyridazine HC3"
Setting atom values ...
  0 settings made for charge
    set type 482 charge 0.122  # "Pyridazine HC4"
Setting atom values ...
  0 settings made for charge
    set type 483 charge -0.239  # "Pyrrole N"
Setting atom values ...
  0 settings made for charge
    set type 484 charge -0.163  # "Pyrrole C2"
Setting atom values ...
  0 settings made for charge
    set type 485 charge -0.149  # "Pyrrole C3"
Setting atom values ...
  0 settings made for charge
    set type 486 charge 0.317  # "Pyrrole HN"
Setting atom values ...
  0 settings made for charge
    set type 487 charge 0.155  # "Pyrrole HC2"
Setting atom values ...
  0 settings made for charge
    set type 488 charge 0.118  # "Pyrrole HC3"
Setting atom values ...
  0 settings made for charge
    set type 489 charge -0.059  # "Pyrazole N1"
Setting atom values ...
  0 settings made for charge
    set type 490 charge -0.491  # "Pyrazole N2"
Setting atom values ...
  0 settings made for charge
    set type 491 charge 0.246  # "Pyrazole C3"
Setting atom values ...
  0 settings made for charge
    set type 492 charge -0.32  # "Pyrazole C4"
Setting atom values ...
  0 settings made for charge
    set type 493 charge -0.034  # "Pyrazole C5"
Setting atom values ...
  0 settings made for charge
    set type 494 charge 0.301  # "Pyrazole HN1"
Setting atom values ...
  0 settings made for charge
    set type 495 charge 0.072  # "Pyrazole HC3"
Setting atom values ...
  0 settings made for charge
    set type 496 charge 0.15  # "Pyrazole HC4"
Setting atom values ...
  0 settings made for charge
    set type 497 charge 0.135  # "Pyrazole HC5"
Setting atom values ...
  0 settings made for charge
    set type 498 charge -0.257  # "Imidazole N1"
Setting atom values ...
  0 settings made for charge
    set type 499 charge 0.275  # "Imidazole C2"
Setting atom values ...
  0 settings made for charge
    set type 500 charge -0.563  # "Imidazole N3"
Setting atom values ...
  0 settings made for charge
    set type 501 charge 0.185  # "Imidazole C4"
Setting atom values ...
  0 settings made for charge
    set type 502 charge -0.286  # "Imidazole C5"
Setting atom values ...
  0 settings made for charge
    set type 503 charge 0.306  # "Imidazole HN1"
Setting atom values ...
  0 settings made for charge
    set type 504 charge 0.078  # "Imidazole HC2"
Setting atom values ...
  0 settings made for charge
    set type 505 charge 0.075  # "Imidazole HC4"
Setting atom values ...
  0 settings made for charge
    set type 506 charge 0.187  # "Imidazole HC5"
Setting atom values ...
  0 settings made for charge
    set type 507 charge -0.19  # "Furan O"
Setting atom values ...
  0 settings made for charge
    set type 508 charge -0.019  # "Furan C2"
Setting atom values ...
  0 settings made for charge
    set type 509 charge -0.154  # "Furan C3"
Setting atom values ...
  0 settings made for charge
    set type 510 charge 0.142  # "Furan HC2"
Setting atom values ...
  0 settings made for charge
    set type 511 charge 0.126  # "Furan HC3"
Setting atom values ...
  0 settings made for charge
    set type 512 charge -0.257  # "Oxazole O"
Setting atom values ...
  0 settings made for charge
    set type 513 charge 0.511  # "Oxazole C2"
Setting atom values ...
  0 settings made for charge
    set type 514 charge -0.59  # "Oxazole N"
Setting atom values ...
  0 settings made for charge
    set type 515 charge 0.169  # "Oxazole C4"
Setting atom values ...
  0 settings made for charge
    set type 516 charge -0.148  # "Oxazole C5"
Setting atom values ...
  0 settings made for charge
    set type 517 charge 0.043  # "Oxazole HC2"
Setting atom values ...
  0 settings made for charge
    set type 518 charge 0.091  # "Oxazole HC4"
Setting atom values ...
  0 settings made for charge
    set type 519 charge 0.181  # "Oxazole HC5"
Setting atom values ...
  0 settings made for charge
    set type 520 charge -0.122  # "Isoxazole O"
Setting atom values ...
  0 settings made for charge
    set type 521 charge -0.413  # "Isoxazole N"
Setting atom values ...
  0 settings made for charge
    set type 522 charge 0.405  # "Isoxazole C3"
Setting atom values ...
  0 settings made for charge
    set type 523 charge -0.455  # "Isoxazole C4"
Setting atom values ...
  0 settings made for charge
    set type 524 charge 0.25  # "Isoxazole C5"
Setting atom values ...
  0 settings made for charge
    set type 525 charge 0.053  # "Isoxazole HC3"
Setting atom values ...
  0 settings made for charge
    set type 526 charge 0.184  # "Isoxazole HC4"
Setting atom values ...
  0 settings made for charge
    set type 527 charge 0.098  # "Isoxazole HC5"
Setting atom values ...
  0 settings made for charge
    set type 528 charge -0.5  # "Indole N1"
Setting atom values ...
  0 settings made for charge
    set type 529 charge 0.001  # "Indole C2"
Setting atom values ...
  0 settings made for charge
    set type 530 charge -0.39  # "Indole C3"
Setting atom values ...
  0 settings made for charge
    set type 531 charge -0.27  # "Indole C4"
Setting atom values ...
  0 settings made for charge
    set type 532 charge -0.127  # "Indole C5"
Setting atom values ...
  0 settings made for charge
    set type 533 charge -0.108  # "Indole C6"
Setting atom values ...
  0 settings made for charge
    set type 534 charge -0.258  # "Indole C7"
Setting atom values ...
  0 settings made for charge
    set type 535 charge 0.22  # "Indole C8"
Setting atom values ...
  0 settings made for charge
    set type 536 charge 0.225  # "Indole C9"
Setting atom values ...
  0 settings made for charge
    set type 537 charge 0.376  # "Indole HN1"
Setting atom values ...
  0 settings made for charge
    set type 538 charge 0.147  # "Indole HC2"
Setting atom values ...
  0 settings made for charge
    set type 539 charge 0.172  # "Indole HC3"
Setting atom values ...
  0 settings made for charge
    set type 540 charge 0.155  # "Indole HC4"
Setting atom values ...
  0 settings made for charge
    set type 541 charge 0.107  # "Indole HC5"
Setting atom values ...
  0 settings made for charge
    set type 542 charge 0.11  # "Indole HC6"
Setting atom values ...
  0 settings made for charge
    set type 543 charge 0.14  # "Indole HC7"
Setting atom values ...
  0 settings made for charge
    set type 544 charge -0.694  # "Quinoline N1"
Setting atom values ...
  0 settings made for charge
    set type 545 charge 0.425  # "Quinoline C2"
Setting atom values ...
  0 settings made for charge
    set type 546 charge -0.359  # "Quinoline C3"
Setting atom values ...
  0 settings made for charge
    set type 547 charge -0.008  # "Quinoline C4"
Setting atom values ...
  0 settings made for charge
    set type 548 charge -0.197  # "Quinoline C5"
Setting atom values ...
  0 settings made for charge
    set type 549 charge -0.112  # "Quinoline C6"
Setting atom values ...
  0 settings made for charge
    set type 550 charge -0.07  # "Quinoline C7"
Setting atom values ...
  0 settings made for charge
    set type 551 charge -0.307  # "Quinoline C8"
Setting atom values ...
  0 settings made for charge
    set type 552 charge 0.563  # "Quinoline C9"
Setting atom values ...
  0 settings made for charge
    set type 553 charge -0.051  # "Quinoline C10"
Setting atom values ...
  0 settings made for charge
    set type 554 charge 0.028  # "Quinoline HC2"
Setting atom values ...
  0 settings made for charge
    set type 555 charge 0.146  # "Quinoline HC3"
Setting atom values ...
  0 settings made for charge
    set type 556 charge 0.119  # "Quinoline HC4"
Setting atom values ...
  0 settings made for charge
    set type 557 charge 0.133  # "Quinoline HC5"
Setting atom values ...
  0 settings made for charge
    set type 558 charge 0.113  # "Quinoline HC6"
Setting atom values ...
  0 settings made for charge
    set type 559 charge 0.114  # "Quinoline HC7"
Setting atom values ...
  0 settings made for charge
    set type 560 charge 0.157  # "Quinoline HC8"
Setting atom values ...
  0 settings made for charge
    set type 561 charge -0.76  # "Purine N1"
Setting atom values ...
  0 settings made for charge
    set type 562 charge 0.679  # "Purine C2"
Setting atom values ...
  0 settings made for charge
    set type 563 charge -0.788  # "Purine N3"
Setting atom values ...
  0 settings made for charge
    set type 564 charge 0.736  # "Purine C4"
Setting atom values ...
  0 settings made for charge
    set type 565 charge 0.038  # "Purine C5"
Setting atom values ...
  0 settings made for charge
    set type 566 charge 0.343  # "Purine C6"
Setting atom values ...
  0 settings made for charge
    set type 567 charge -0.642  # "Purine N7"
Setting atom values ...
  0 settings made for charge
    set type 568 charge 0.452  # "Purine C8"
Setting atom values ...
  0 settings made for charge
    set type 569 charge -0.682  # "Purine N9"
Setting atom values ...
  0 settings made for charge
    set type 570 charge 0.024  # "Purine HC2"
Setting atom values ...
  0 settings made for charge
    set type 571 charge 0.101  # "Purine HC6"
Setting atom values ...
  0 settings made for charge
    set type 572 charge 0.086  # "Purine HC8"
Setting atom values ...
  0 settings made for charge
    set type 573 charge 0.413  # "Purine HN9"
Setting atom values ...
  0 settings made for charge
    set type 574 charge -0.03  # "Thiazole S"
Setting atom values ...
  0 settings made for charge
    set type 575 charge 0.242  # "Thiazole C2"
Setting atom values ...
  0 settings made for charge
    set type 576 charge -0.515  # "Thiazole N"
Setting atom values ...
  0 settings made for charge
    set type 577 charge 0.228  # "Thiazole C4"
Setting atom values ...
  0 settings made for charge
    set type 578 charge -0.299  # "Thiazole C5"
Setting atom values ...
  0 settings made for charge
    set type 579 charge 0.101  # "Thiazole HC2"
Setting atom values ...
  0 settings made for charge
    set type 580 charge 0.068  # "Thiazole HC4"
Setting atom values ...
  0 settings made for charge
    set type 581 charge 0.205  # "Thiazole HC5"
Setting atom values ...
  0 settings made for charge
    set type 582 charge -0.951  # "1,3,5-Triazine N"
Setting atom values ...
  0 settings made for charge
    set type 583 charge 0.965  # "1,3,5-Triazine CH"
Setting atom values ...
  0 settings made for charge
    set type 584 charge -0.014  # "1,3,5-Triazine CH"
Setting atom values ...
  0 settings made for charge
    set type 585 charge 0.13  # "Serotonin C5-OH"
Setting atom values ...
  0 settings made for charge
    set type 586 charge 0.052  # "Serotonin CH2 on C3"
Setting atom values ...
  0 settings made for charge
    set type 587 charge -0.599  # "1,10-Phenanthroline N"
Setting atom values ...
  0 settings made for charge
    set type 588 charge 0.392  # "1,10-Phenanthroline C2"
Setting atom values ...
  0 settings made for charge
    set type 589 charge -0.348  # "1,10-Phenanthroline C3"
Setting atom values ...
  0 settings made for charge
    set type 590 charge 0.02  # "1,10-Phenanthroline C4"
Setting atom values ...
  0 settings made for charge
    set type 591 charge -0.042  # "1,10-Phenanthroline C12"
Setting atom values ...
  0 settings made for charge
    set type 592 charge 0.347  # "1,10-Phenanthroline C11"
Setting atom values ...
  0 settings made for charge
    set type 593 charge -0.196  # "1,10-Phenanthroline C5"
Setting atom values ...
  0 settings made for charge
    set type 594 charge 0.032  # "1,10-Phenanthroline HC2"
Setting atom values ...
  0 settings made for charge
    set type 595 charge 0.146  # "1,10-Phenanthroline HC3"
Setting atom values ...
  0 settings made for charge
    set type 596 charge 0.108  # "1,10-Phenanthroline HC4"
Setting atom values ...
  0 settings made for charge
    set type 597 charge 0.14  # "1,10-Phenanthroline HC5"
Setting atom values ...
  0 settings made for charge
    set type 598 charge 0.122  # "1-Methylimidazole N1"
Setting atom values ...
  0 settings made for charge
    set type 599 charge 0.166  # "1-Methylimidazole C2"
Setting atom values ...
  0 settings made for charge
    set type 600 charge -0.58  # "1-Methylimidazole N3"
Setting atom values ...
  0 settings made for charge
    set type 601 charge 0.173  # "1-Methylimidazole C4"
Setting atom values ...
  0 settings made for charge
    set type 602 charge -0.395  # "1-Methylimidazole C5"
Setting atom values ...
  0 settings made for charge
    set type 603 charge -0.199  # "1-Methylimidazole CH3-"
Setting atom values ...
  0 settings made for charge
    set type 604 charge 0.118  # "1-Methylimidazole HC2"
Setting atom values ...
  0 settings made for charge
    set type 605 charge 0.093  # "1-Methylimidazole HC4"
Setting atom values ...
  0 settings made for charge
    set type 606 charge 0.208  # "1-Methylimidazole HC5"
Setting atom values ...
  0 settings made for charge
    set type 607 charge 0.098  # "1-Methylimidazole CH3-"
Setting atom values ...
  0 settings made for charge
    set type 608 charge -0.139  # "1-Et Imidazole RCH2-"
Setting atom values ...
  0 settings made for charge
    set type 609 charge -0.079  # "1-iPr Imidazole R2CH-"
Setting atom values ...
  0 settings made for charge
    set type 610 charge 0.099  # "1-MeO-Me-Imidazole CH2"
Setting atom values ...
  0 settings made for charge
    set type 611 charge -0.168  # "2-Me Pyridine CH3"
Setting atom values ...
  0 settings made for charge
    set type 612 charge -0.108  # "2-Et Pyridine CH2"
Setting atom values ...
  0 settings made for charge
    set type 613 charge -0.189  # "3-Me Pyridazine CH3"
Setting atom values ...
  0 settings made for charge
    set type 614 charge -0.129  # "3-Et Pyridazine CH2"
Setting atom values ...
  0 settings made for charge
    set type 615 charge -0.169  # "4-Me Pyrimidine CH3"
Setting atom values ...
  0 settings made for charge
    set type 616 charge -0.109  # "4-Et Pyrimidine CH2"
Setting atom values ...
  0 settings made for charge
    set type 617 charge -0.138  # "2-Me Pyrazine CH3"
Setting atom values ...
  0 settings made for charge
    set type 618 charge -0.078  # "2-Et Pyrazine CH2"
Setting atom values ...
  0 settings made for charge
    set type 619 charge -0.025  # "2-Me Pyrrole CH3"
Setting atom values ...
  0 settings made for charge
    set type 620 charge 0.035  # "2-Et Pyrrole CH2"
Setting atom values ...
  0 settings made for charge
    set type 621 charge -0.038  # "2-Me Furan CH3"
Setting atom values ...
  0 settings made for charge
    set type 622 charge 0.022  # "2-Et Furan CH2"
Setting atom values ...
  0 settings made for charge
    set type 623 charge -0.334  # "6-Mercaptopurine SH"
Setting atom values ...
  0 settings made for charge
    set type 624 charge 0.255  # "6-Mercaptopurine SH"
Setting atom values ...
  0 settings made for charge
    set type 625 charge 0.523  # "6-Mercaptopurine C6"
Setting atom values ...
  0 settings made for charge
    set type 626 charge 0.5  # "Beta-Lactam N-C=O"
Setting atom values ...
  0 settings made for charge
    set type 627 charge -0.14  # "Beta-Lactam N-C=O"
Setting atom values ...
  0 settings made for charge
    set type 628 charge 0.2275  # "Penicillin CH-N"
Setting atom values ...
  0 settings made for charge
    set type 629 charge 0.14  # "Penicillin CH-CO"
Setting atom values ...
  0 settings made for charge
    set type 630 charge -0.008  # "3-Me Indole CH3"
Setting atom values ...
  0 settings made for charge
    set type 631 charge 0.588  # "2-Phenyl Pyridine C2"
Setting atom values ...
  0 settings made for charge
    set type 632 charge -0.103  # "2-Phenyl Pyridine C2'"
Setting atom values ...
  0 settings made for charge
    set type 633 charge -0.332  # "2-Phenyl Pyridine C3"
Setting atom values ...
  0 settings made for charge
    set type 634 charge 0.04  # "2-Phenyl Pyridine C3'"
Setting atom values ...
  0 settings made for charge
    set type 635 charge 0.342  # "2-Phenyl Pyridine C4"
Setting atom values ...
  0 settings made for charge
    set type 636 charge -0.05  # "2-Phenyl Pyridine C4'"
Setting atom values ...
  0 settings made for charge
    set type 637 charge -0.205  # "Diphenyl Thioether S"
Setting atom values ...
  0 settings made for charge
    set type 638 charge 3.0  # "Actinium Ion Ac+3"
Setting atom values ...
  0 settings made for charge
    set type 639 charge 4.0  # "Thorium Ion Th+4"
Setting atom values ...
  0 settings made for charge
    set type 640 charge 3.0  # "Americium Ion Am+3"
Setting atom values ...
  0 settings made for charge
    set type 641 charge 0.619  # "t-Butyl Cation C+"
Setting atom values ...
  0 settings made for charge
    set type 642 charge -0.395  # "t-Butyl Cation CH3-"
Setting atom values ...
  0 settings made for charge
    set type 643 charge 0.174  # "t-Butyl Cation CH3-"
Setting atom values ...
  0 settings made for charge
    set type 644 charge 3.0  # "Lanthanum Ion La+3"
Setting atom values ...
  0 settings made for charge
    set type 645 charge 3.0  # "Neodymium Ion Nd+3"
Setting atom values ...
  0 settings made for charge
    set type 646 charge 3.0  # "Europium Ion Eu+3"
Setting atom values ...
  0 settings made for charge
    set type 647 charge 3.0  # "Gadolinium Ion Gd+3"
Setting atom values ...
  0 settings made for charge
    set type 648 charge 3.0  # "Ytterbium Ion Yb+3"
Setting atom values ...
  0 settings made for charge
    set type 649 charge -0.344  # "Cl..CH3..Cl- Sn2 TS"
Setting atom values ...
  0 settings made for charge
    set type 650 charge -0.628  # "Cl..CH3..Cl- Sn2 TS"
Setting atom values ...
  0 settings made for charge
    set type 651 charge 0.2  # "Cl..CH3..Cl- Sn2 TS"
Setting atom values ...
  0 settings made for charge
    set type 652 charge -0.12  # "Cyclopropane -CH2-"
Setting atom values ...
  0 settings made for charge
    set type 653 charge -0.06  # "Cyclopropane -CHR-"
Setting atom values ...
  0 settings made for charge
    set type 654 charge 0.0  # "Cyclopropane -CR2-"
Setting atom values ...
  0 settings made for charge
    set type 655 charge -0.23  # "Cyclopentadienyl Anion"
Setting atom values ...
  0 settings made for charge
    set type 656 charge 0.03  # "Cyclopentadienyl Anion"
Setting atom values ...
  0 settings made for charge
    set type 657 charge -0.099  # "Cyclopentadienyl Radical"
Setting atom values ...
  0 settings made for charge
    set type 658 charge 0.099  # "Cyclopentadienyl Radical"
Setting atom values ...
  0 settings made for charge
    set type 659 charge 0.22  # "Fluorobenzene CF"
Setting atom values ...
  0 settings made for charge
    set type 660 charge -0.22  # "Fluorobenzene CF"
Setting atom values ...
  0 settings made for charge
    set type 661 charge 0.13  # "Hexafluorobenzene CF"
Setting atom values ...
  0 settings made for charge
    set type 662 charge -0.13  # "Hexafluorobenzene CF"
Setting atom values ...
  0 settings made for charge
    set type 663 charge -0.22  # "Bromide -CH2-Br (UA)"
Setting atom values ...
  0 settings made for charge
    set type 664 charge 0.22  # "Bromide -CH2-Br (UA)"
Setting atom values ...
  0 settings made for charge
    set type 665 charge 0.15  # "TrifluoroMeBenzene C-CF3"
Setting atom values ...
  0 settings made for charge
    set type 666 charge 0.45  # "TrifluoroMeBenzene CF3-"
Setting atom values ...
  0 settings made for charge
    set type 667 charge -0.2  # "TrifluoroMeBenzene CF3-"
Setting atom values ...
  0 settings made for charge
    set type 668 charge 0.2  # "Difluorobenzene CF"
Setting atom values ...
  0 settings made for charge
    set type 669 charge -0.2  # "Difluorobenzene CF"
Setting atom values ...
  0 settings made for charge
    set type 670 charge 0.2  # "Bromobenzene CBr"
Setting atom values ...
  0 settings made for charge
    set type 671 charge -0.2  # "Bromobenzene CBr"
Setting atom values ...
  0 settings made for charge
    set type 672 charge 0.1  # "Iodobenzene CI"
Setting atom values ...
  0 settings made for charge
    set type 673 charge -0.1  # "Iodobenzene CI"
Setting atom values ...
  0 settings made for charge
    set type 674 charge 0.055  # "cProp/cBut Benzene C-Ar"
Setting atom values ...
  0 settings made for charge
    set type 675 charge -0.22  # "Thiophenol SH"
Setting atom values ...
  0 settings made for charge
    set type 676 charge 0.065  # "Thiophenol C-SH"
Setting atom values ...
  0 settings made for charge
    set type 677 charge 0.013  # "Benzamidine CG"
Setting atom values ...
  0 settings made for charge
    set type 678 charge -0.106  # "Benzamidine CD"
Setting atom values ...
  0 settings made for charge
    set type 679 charge -0.09  # "Benzamidine CE"
Setting atom values ...
  0 settings made for charge
    set type 680 charge -0.119  # "Benzamidine CZ"
Setting atom values ...
  0 settings made for charge
    set type 681 charge 0.141  # "Benzamidine HCD"
Setting atom values ...
  0 settings made for charge
    set type 682 charge 0.129  # "Benzamidine HCE"
Setting atom values ...
  0 settings made for charge
    set type 683 charge 0.827  # "Benzamidine C+"
Setting atom values ...
  0 settings made for charge
    set type 684 charge -0.885  # "Benzamidine -NH2"
Setting atom values ...
  0 settings made for charge
    set type 685 charge 0.426  # "Benzamidine H1-N"
Setting atom values ...
  0 settings made for charge
    set type 686 charge 0.465  # "Benzamidine H2-N"
Setting atom values ...
  0 settings made for charge
    set type 687 charge 0.119  # "Benzamidine HCG"
Setting atom values ...
  0 settings made for charge
    set type 688 charge -0.02  # "Neutral MeGdn CH3-"
Setting atom values ...
  0 settings made for charge
    set type 689 charge 0.04  # "Neutral ARG CD"
Setting atom values ...
  0 settings made for charge
    set type 690 charge -0.62  # "Neutral ARG NE"
Setting atom values ...
  0 settings made for charge
    set type 691 charge -0.785  # "Neutral ARG N1 (HN=C)"
Setting atom values ...
  0 settings made for charge
    set type 692 charge -0.785  # "Neutral ARG N2 (H2N-C)"
Setting atom values ...
  0 settings made for charge
    set type 693 charge 0.55  # "Neutral ARG CZ (>C=)"
Setting atom values ...
  0 settings made for charge
    set type 694 charge -0.56  # "Alkyl Nitrile -CN"
Setting atom values ...
  0 settings made for charge
    set type 695 charge 0.46  # "Alkyl Nitrile -CN"
Setting atom values ...
  0 settings made for charge
    set type 696 charge -0.08  # "Acetonitrile CH3-CN"
Setting atom values ...
  0 settings made for charge
    set type 697 charge -0.02  # "Alkyl Nitrile RCH2-CN"
Setting atom values ...
  0 settings made for charge
    set type 698 charge 0.04  # "Alkyl Nitrile R2CH-CN"
Setting atom values ...
  0 settings made for charge
    set type 699 charge 0.1  # "Alkyl Nitrile R3C-CN"
Setting atom values ...
  0 settings made for charge
    set type 700 charge 0.06  # "Alkyl Nitrile H-C-CN"
Setting atom values ...
  0 settings made for charge
    set type 701 charge 0.54  # "Nitroalkane -NO2"
Setting atom values ...
  0 settings made for charge
    set type 702 charge -0.37  # "Nitroalkane -NO2"
Setting atom values ...
  0 settings made for charge
    set type 703 charge 0.02  # "Nitromethane CH3-NO2"
Setting atom values ...
  0 settings made for charge
    set type 704 charge 0.06  # "Nitroalkane H-C-NO2"
Setting atom values ...
  0 settings made for charge
    set type 705 charge 0.08  # "Nitroalkane RCH2-NO2"
Setting atom values ...
  0 settings made for charge
    set type 706 charge 0.14  # "Nitroalkane R2CH-NO2"
Setting atom values ...
  0 settings made for charge
    set type 707 charge 0.2  # "Nitroalkane R3C-NO2"
Setting atom values ...
  0 settings made for charge
    set type 708 charge 0.65  # "Nitrobenzene -NO2"
Setting atom values ...
  0 settings made for charge
    set type 709 charge 0.09  # "Nitrobenzene C-NO2"
Setting atom values ...
  0 settings made for charge
    set type 710 charge 0.035  # "Benzonitrile -CH2-"
Setting atom values ...
  0 settings made for charge
    set type 711 charge -0.9  # "Neutral Benzamidine N"
Setting atom values ...
  0 settings made for charge
    set type 712 charge -0.5  # "Propylene Carbonate C=O"
Setting atom values ...
  0 settings made for charge
    set type 713 charge 0.86  # "Propylene Carbonate C=O"
Setting atom values ...
  0 settings made for charge
    set type 714 charge -0.45  # "Propylene Carbonate C-O"
Setting atom values ...
  0 settings made for charge
    set type 715 charge 0.21  # "Propylene Carbonate CH2"
Setting atom values ...
  0 settings made for charge
    set type 716 charge 0.16  # "Propylene Carbonate CH"
Setting atom values ...
  0 settings made for charge
    set type 717 charge -0.1  # "Propylene Carbonate CH3"
Setting atom values ...
  0 settings made for charge
    set type 718 charge 0.03  # "Propylene Carbonate CH2"
Setting atom values ...
  0 settings made for charge
    set type 719 charge 0.03  # "Propylene Carbonate CH"
Setting atom values ...
  0 settings made for charge
    set type 720 charge 0.06  # "Propylene Carbonate CH3"
Setting atom values ...
  0 settings made for charge
    set type 721 charge -0.78  # "GTP O-(POn)2"
Setting atom values ...
  0 settings made for charge
    set type 722 charge 0.9684  # "Phosphonium R4P+"
Setting atom values ...
  0 settings made for charge
    set type 723 charge -0.5081  # "Phosphonium CH3-PR3+"
Setting atom values ...
  0 settings made for charge
    set type 724 charge -0.008  # "Phosphonium RCH2-PR3+"
Setting atom values ...
  0 settings made for charge
    set type 725 charge 0.172  # "Phosphonium CH3-PR3+"
Setting atom values ...
  0 settings made for charge
    set type 726 charge 1.34  # "Hexafluorophosphate Ion"
Setting atom values ...
  0 settings made for charge
    set type 727 charge -0.39  # "Hexafluorophosphate Ion"
Setting atom values ...
  0 settings made for charge
    set type 728 charge 0.794  # "Nitrate Ion NO3-"
Setting atom values ...
  0 settings made for charge
    set type 729 charge -0.598  # "Nitrate Ion NO3-"
Setting atom values ...
  0 settings made for charge
    set type 730 charge -0.9  # "Amine RNH2"
Setting atom values ...
  0 settings made for charge
    set type 731 charge -0.78  # "Amine R2NH"
Setting atom values ...
  0 settings made for charge
    set type 732 charge -0.63  # "Amine R3N"
Setting atom values ...
  0 settings made for charge
    set type 733 charge 0.0  # "Amine CH3-NH2"
Setting atom values ...
  0 settings made for charge
    set type 734 charge 0.02  # "Amine CH3-NHR"
Setting atom values ...
  0 settings made for charge
    set type 735 charge 0.03  # "Amine CH3-NR2"
Setting atom values ...
  0 settings made for charge
    set type 736 charge 0.06  # "Amine RCH2-NH2"
Setting atom values ...
  0 settings made for charge
    set type 737 charge 0.08  # "Amine RCH2-NHR"
Setting atom values ...
  0 settings made for charge
    set type 738 charge 0.09  # "Amine RCH2-NR2"
Setting atom values ...
  0 settings made for charge
    set type 739 charge 0.36  # "Amine RNH2"
Setting atom values ...
  0 settings made for charge
    set type 740 charge 0.38  # "Amine R2NH"
Setting atom values ...
  0 settings made for charge
    set type 741 charge 0.06  # "Amine H-C-N"
Setting atom values ...
  0 settings made for charge
    set type 742 charge 0.12  # "Amine R2CH-NH2"
Setting atom values ...
  0 settings made for charge
    set type 743 charge 0.18  # "Amine R3C-NH2"
Setting atom values ...
  0 settings made for charge
    set type 744 charge 0.14  # "Amine R2CH-NHR"
Setting atom values ...
  0 settings made for charge
    set type 745 charge 0.15  # "Amine R2CH-NR2"
Setting atom values ...
  0 settings made for charge
    set type 746 charge 0.18  # "Aniline C-NH2"
Setting atom values ...
  0 settings made for charge
    set type 747 charge 0.2  # "N-Me Aniline C-NHR"
Setting atom values ...
  0 settings made for charge
    set type 748 charge 0.21  # "N-DiMe Aniline C-NR2"
Setting atom values ...
  0 settings made for charge
    set type 749 charge 0.115  # "Benzyl Amine -CH2NH2"
Setting atom values ...
  0 settings made for charge
    set type 750 charge 0.175  # "Benzyl Amine -CHRNH2"
Setting atom values ...
  0 settings made for charge
    set type 751 charge 0.235  # "Benzyl Amine -CR2NH2"
Setting atom values ...
  0 settings made for charge
    set type 752 charge 0.195  # "Benzyl Ether -CH2OR"
Setting atom values ...
  0 settings made for charge
    set type 753 charge 0.1525  # "Benzyl Sulfide -CH2SH"
Setting atom values ...
  0 settings made for charge
    set type 754 charge 0.135  # "Benzyl Amine -CH2NHR"
Setting atom values ...
  0 settings made for charge
    set type 755 charge -0.21  # "Alkyne HCC-"
Setting atom values ...
  0 settings made for charge
    set type 756 charge 0.2  # "Alkyne HCC-"
Setting atom values ...
  0 settings made for charge
    set type 757 charge 0.01  # "Alkyne RCCH R w/ 2/3 H"
Setting atom values ...
  0 settings made for charge
    set type 758 charge 0.01  # "Alkyne RCCH R w/ 1 H"
Setting atom values ...
  0 settings made for charge
    set type 759 charge 0.01  # "Alkyne RCCH R w/ O H/Ph"
Setting atom values ...
  0 settings made for charge
    set type 760 charge 0.06  # "Alkyne H-C-CC-"
Setting atom values ...
  0 settings made for charge
    set type 761 charge 0.45  # "A & G Sugar C1'"
Setting atom values ...
  0 settings made for charge
    set type 762 charge 0.48  # "C Sugar C1'"
Setting atom values ...
  0 settings made for charge
    set type 763 charge 0.51  # "U & T Sugar C1'"
Setting atom values ...
  0 settings made for charge
    set type 764 charge -0.655  # "Sugar O5'"
Setting atom values ...
  0 settings made for charge
    set type 765 charge 0.39  # "Sugar H3' (-OH)"
Setting atom values ...
  0 settings made for charge
    set type 766 charge -0.5  # "A & G Nucleoside N9"
Setting atom values ...
  0 settings made for charge
    set type 767 charge -0.56  # "C Nucleoside N1"
Setting atom values ...
  0 settings made for charge
    set type 768 charge -0.6  # "U & T Nucleoside N1"
Setting atom values ...
  0 settings made for charge
    set type 769 charge 0.0  # "Alkyne RCCR"
Setting atom values ...
  0 settings made for charge
    set type 770 charge -0.1  # "Ammonium R3NH+"
Setting atom values ...
  0 settings made for charge
    set type 771 charge 0.29  # "Ammonium R3NH+"
Setting atom values ...
  0 settings made for charge
    set type 772 charge 0.09  # "Ammonium CH3-NHR2+"
Setting atom values ...
  0 settings made for charge
    set type 773 charge 0.15  # "Ammonium RCH2-NHR2+"
Setting atom values ...
  0 settings made for charge
    set type 774 charge 0.21  # "Ammonium R2CH-NHR2+"
Setting atom values ...
  0 settings made for charge
    set type 775 charge 0.27  # "Ammonium R3C-NHR2+"
Setting atom values ...
  0 settings made for charge
    set type 776 charge 0.096  # "2-Phenyl Furan C2"
Setting atom values ...
  0 settings made for charge
    set type 777 charge -0.039  # "2-Phenyl Furan C3"
Setting atom values ...
  0 settings made for charge
    set type 778 charge 0.027  # "2-Phenyl Furan C2'"
Setting atom values ...
  0 settings made for charge
    set type 779 charge 0.011  # "2-Phenyl Furan C3'"
Setting atom values ...
  0 settings made for charge
    set type 780 charge 0.074  # "GLY Zwitterion HA"
Setting atom values ...
  0 settings made for charge
    set type 781 charge -0.029  # "GLY Zwitterion CA"
Setting atom values ...
  0 settings made for charge
    set type 782 charge 0.7  # "GLY Zwitterion C"
Setting atom values ...
  0 settings made for charge
    set type 783 charge -0.352  # "GLY Zwitterion N"
Setting atom values ...
  0 settings made for charge
    set type 784 charge -0.709  # "GLY Zwitterion O"
Setting atom values ...
  0 settings made for charge
    set type 785 charge 0.317  # "GLY Zwitterion HN"
Setting atom values ...
  0 settings made for charge
    set type 786 charge -0.22  # "Alkyl Fluoride C-F"
Setting atom values ...
  0 settings made for charge
    set type 787 charge 0.02  # "Alkyl Fluoride RCH2-F"
Setting atom values ...
  0 settings made for charge
    set type 788 charge 0.1  # "Alkyl Fluoride H-C-F"
Setting atom values ...
  0 settings made for charge
    set type 789 charge 0.12  # "Alkyl Fluoride R2CH-F"
Setting atom values ...
  0 settings made for charge
    set type 790 charge 0.22  # "Alkyl Fluoride R3C-F"
Setting atom values ...
  0 settings made for charge
    set type 791 charge 0.36  # "Perfluoroalkane CF3-"
Setting atom values ...
  0 settings made for charge
    set type 792 charge 0.24  # "Perfluoroalkane -CF2-"
Setting atom values ...
  0 settings made for charge
    set type 793 charge 0.12  # "Perfluoroalkane >CF-"
Setting atom values ...
  0 settings made for charge
    set type 794 charge 0.48  # "Tetrafluoromethane CF4"
Setting atom values ...
  0 settings made for charge
    set type 795 charge -0.12  # "Perfluoroalkane C-F"
Setting atom values ...
  0 settings made for charge
    set type 796 charge 0.25  # "DifluoroMeBenzene -CHF2"
Setting atom values ...
  0 settings made for charge
    set type 797 charge 0.15  # "DifluoroMeBenzene -CHF2"
Setting atom values ...
  0 settings made for charge
    set type 798 charge -0.08  # "Fluoroacetate FCH2-COO-"
Setting atom values ...
  0 settings made for charge
    set type 799 charge -0.106  # "Chloroacetate ClCH2-COO-"
Setting atom values ...
  0 settings made for charge
    set type 800 charge -0.2  # "Alkyl Chloride C-Cl"
Setting atom values ...
  0 settings made for charge
    set type 801 charge -0.006  # "Alkyl Chloride RCH2-Cl"
Setting atom values ...
  0 settings made for charge
    set type 802 charge 0.103  # "Alkyl Chloride H-C-Cl"
Setting atom values ...
  0 settings made for charge
    set type 803 charge 0.097  # "Alkyl Chloride R2CH-Cl"
Setting atom values ...
  0 settings made for charge
    set type 804 charge 0.2  # "Alkyl Chloride R3C-Cl"
Setting atom values ...
  0 settings made for charge
    set type 805 charge -0.2  # "Alkyl Bromide C-Br"
Setting atom values ...
  0 settings made for charge
    set type 806 charge -0.006  # "Alkyl Bromide RCH2-Br"
Setting atom values ...
  0 settings made for charge
    set type 807 charge 0.103  # "Alkyl Bromide H-C-Br"
Setting atom values ...
  0 settings made for charge
    set type 808 charge 0.097  # "Alkyl Bromide R2CH-Br"
Setting atom values ...
  0 settings made for charge
    set type 809 charge 0.2  # "Alkyl Bromide R3C-Br"
Setting atom values ...
  0 settings made for charge
    set type 810 charge -0.08  # "Acyl Fluoride F-C=O"
Setting atom values ...
  0 settings made for charge
    set type 811 charge -0.08  # "Acyl Chloride Cl-C=O"
Setting atom values ...
  0 settings made for charge
    set type 812 charge -0.08  # "Acyl Bromide Br-C=O"
Setting atom values ...
  0 settings made for charge
    set type 813 charge 0.1  # "Trifluoroanisole C-OCF3"
Setting atom values ...
  0 settings made for charge
    set type 814 charge -0.25  # "Trifluoroanisole -OCF3"
Setting atom values ...
  0 settings made for charge
    set type 815 charge 0.6  # "Trifluoroanisole -OCF3"
Setting atom values ...
  0 settings made for charge
    set type 816 charge -0.15  # "Trifluoroanisole -OCF3"
Setting atom values ...
  0 settings made for charge
    set type 817 charge -0.025  # "N-Me,N-PhAcetamide N"
Setting atom values ...
  0 settings made for charge
    set type 818 charge -0.045  # "N-Me,N-PhAcetamide Cipso"
Setting atom values ...
  0 settings made for charge
    set type 819 charge 0.145  # "Benzyl Amine -CH2NR2"
Setting atom values ...
  0 settings made for charge
    set type 820 charge 0.888  # "Alkyl Hydroxamic Acid C"
Setting atom values ...
  0 settings made for charge
    set type 821 charge 1.003  # "Aryl Hydroxamic Acid C"
Setting atom values ...
  0 settings made for charge
    set type 822 charge -0.658  # "Hydroxamic Acid C=O"
Setting atom values ...
  0 settings made for charge
    set type 823 charge -0.634  # "Hydroxamic Acid N"
Setting atom values ...
  0 settings made for charge
    set type 824 charge 0.411  # "Hydroxamic Acid HN"
Setting atom values ...
  0 settings made for charge
    set type 825 charge -0.442  # "Hydroxamic Acid OH"
Setting atom values ...
  0 settings made for charge
    set type 826 charge 0.435  # "Hydroxamic Acid OH"
Setting atom values ...
  0 settings made for charge
    set type 827 charge 0.225  # "Benzyl Ether -CHROR"
Setting atom values ...
  0 settings made for charge
    set type 828 charge 0.255  # "Benzyl Ether -CR2OR"
Setting atom values ...
  0 settings made for charge
    set type 829 charge -0.034  # "3-Phenyl Pyrrole C3"
Setting atom values ...
  0 settings made for charge
    set type 830 charge 0.003  # "3-Phenyl Pyrrole C3'"
Setting atom values ...
  0 settings made for charge
    set type 831 charge 0.3  # "4-Phenyl Imidazole C4"
Setting atom values ...
  0 settings made for charge
    set type 832 charge -0.04  # "4-Phenyl Imidazole C4'"
Setting atom values ...
  0 settings made for charge
    set type 833 charge -0.0575  # "Diphenylmethane Cipso"
Setting atom values ...
  0 settings made for charge
    set type 834 charge 2.0  # "Zinc Ion Zn+2"
Setting atom values ...
  0 settings made for charge
    set type 835 charge -0.07  # "Alkyl Iodide RCH2-I"
Setting atom values ...
  0 settings made for charge
    set type 836 charge 0.03  # "Alkyl Iodide R2CH-I"
Setting atom values ...
  0 settings made for charge
    set type 837 charge 0.13  # "Alkyl Iodide R3C-I"
Setting atom values ...
  0 settings made for charge
    set type 838 charge -0.13  # "Alkyl Iodide C-I"
Setting atom values ...
  0 settings made for charge
    set type 839 charge 0.1  # "Alkyl Iodide H-C-I"
Setting atom values ...
  0 settings made for charge
    set type 840 charge -0.685  # "N-Ph Sulfonamide -NHPh"
Setting atom values ...
  0 settings made for charge
    set type 841 charge 0.155  # "N-Ph Sulfonamide Cipso"
Setting atom values ...
  0 settings made for charge
    set type 842 charge -0.1  # "Benzoate C-COO-"
Setting atom values ...
  0 settings made for charge
    set type 843 charge -0.427  # "N-Phenyl Urea N"
Setting atom values ...
  0 settings made for charge
    set type 844 charge 0.218  # "N-Phenyl Urea Cipso"
Setting atom values ...
  0 settings made for charge
    set type 845 charge 0.6  # "Tertiary Amide -CO-NR2"
Setting atom values ...
  0 settings made for charge
    set type 846 charge -0.6  # "Tertiary Amide -CO-NR2"
Setting atom values ...
  0 settings made for charge
    set type 847 charge -0.36  # "Tertiary Amide -CO-NR2"
Setting atom values ...
  0 settings made for charge
    set type 848 charge 0.0  # "Tertiary Amide -NRCH3"
Setting atom values ...
  0 settings made for charge
    set type 849 charge 0.06  # "Tertiary Amide -NRCH2R"
Setting atom values ...
  0 settings made for charge
    set type 850 charge 0.12  # "Tertiary Amide -NRCHR2"
Setting atom values ...
  0 settings made for charge
    set type 851 charge 0.18  # "Tertiary Amide -NRCR3"
Setting atom values ...
  0 settings made for charge
    set type 852 charge 0.06  # "Tertiary Amide H-C-N"
Setting atom values ...
  0 settings made for charge
    set type 853 charge 0.57  # "Tertiary Formamide C=O"
Setting atom values ...
  0 settings made for charge
    set type 854 charge -0.57  # "Tertiary Formamide C=O"
Setting atom values ...
  0 settings made for charge
    set type 855 charge 0.0  # "Tertiary Formamide H-C=O"
Setting atom values ...
  0 settings made for charge
    set type 856 charge 0.02  # "B2-Peptide CA"
Setting atom values ...
  0 settings made for charge
    set type 857 charge -0.04  # "B3-Peptide CA Main/N-Ter"
Setting atom values ...
  0 settings made for charge
    set type 858 charge 0.0  # "B3-Pep CB GLY Main/C-Ter"
Setting atom values ...
  0 settings made for charge
    set type 859 charge 0.06  # "B3-Pep CB ALA Main/C-Ter"
Setting atom values ...
  0 settings made for charge
    set type 860 charge -0.07  # "B3-Pep CB PRO Main/C-Ter"
Setting atom values ...
  0 settings made for charge
    set type 861 charge -0.14  # "B3-Peptide CA C-Ter"
Setting atom values ...
  0 settings made for charge
    set type 862 charge 0.17  # "B3-Peptide CB ALA N-Ter"
Setting atom values ...
  0 settings made for charge
    set type 863 charge 0.11  # "B3-Peptide CB GLY N-Ter"
Setting atom values ...
  0 settings made for charge
    set type 864 charge 0.15  # "B3-Peptide CB PRO N-Ter"
Setting atom values ...
  0 settings made for charge
    set type 865 charge 0.17  # "B3-Peptide CE PRO N-Ter"
Setting atom values ...
  0 settings made for charge
    set type 866 charge 1.0  # "Alkyl Silane R4Si"
Setting atom values ...
  0 settings made for charge
    set type 867 charge 0.85  # "Alkyl Silane R3SiH"
Setting atom values ...
  0 settings made for charge
    set type 868 charge 0.7  # "Alkyl Silane R2SiH2"
Setting atom values ...
  0 settings made for charge
    set type 869 charge 0.55  # "Alkyl Silane RSiH3"
Setting atom values ...
  0 settings made for charge
    set type 870 charge -0.1  # "Alkyl Silane H-C-Si"
Setting atom values ...
  0 settings made for charge
    set type 871 charge -0.43  # "Methyl Silane CH3-Si"
Setting atom values ...
  0 settings made for charge
    set type 872 charge -0.37  # "Alkyl Silane RCH2-Si"
Setting atom values ...
  0 settings made for charge
    set type 873 charge -0.31  # "Alkyl Silane R2CH-Si"
Setting atom values ...
  0 settings made for charge
    set type 874 charge -0.25  # "Alkyl Silane R3C-Si"
Setting atom values ...
  0 settings made for charge
    set type 875 charge -1.0  # "Fluoride Ion (GBSA)"
Setting atom values ...
  0 settings made for charge
    set type 876 charge -1.0  # "Chloride Ion (GBSA)"
Setting atom values ...
  0 settings made for charge
    set type 877 charge -1.0  # "Bromide Ion (GBSA)"
Setting atom values ...
  0 settings made for charge
    set type 878 charge -1.0  # "Iodide Ion (GBSA)"
Setting atom values ...
  0 settings made for charge
    set type 879 charge 1.0  # "Lithium Ion (GBSA)"
Setting atom values ...
  0 settings made for charge
    set type 880 charge 1.0  # "Sodium Ion (GBSA)"
Setting atom values ...
  1 settings made for charge
    set type 881 charge 1.0  # "Potassium Ion (GBSA)"
Setting atom values ...
  0 settings made for charge
    set type 882 charge 1.0  # "Rubidium Ion (GBSA)"
Setting atom values ...
  0 settings made for charge
    set type 883 charge 1.0  # "Cesium Ion (GBSA)"
Setting atom values ...
  0 settings made for charge
    set type 884 charge 2.0  # "Magnesium Ion (GBSA)"
Setting atom values ...
  0 settings made for charge
    set type 885 charge 2.0  # "Calcium Ion (GBSA)"
Setting atom values ...
  0 settings made for charge
    set type 886 charge 2.0  # "Strontium Ion (GBSA)"
Setting atom values ...
  0 settings made for charge
    set type 887 charge 2.0  # "Barium Ion (GBSA)"
Setting atom values ...
  0 settings made for charge
    set type 888 charge -0.05  # "Ammonium CH3-NR3+"
Setting atom values ...
  0 settings made for charge
    set type 889 charge 0.05  # "Ammonium RCH2-NR3+"
Setting atom values ...
  0 settings made for charge
    set type 890 charge 0.15  # "Ammonium R2CH-NR3+"
Setting atom values ...
  0 settings made for charge
    set type 891 charge 0.25  # "Ammonium R3C-NR3+"
Setting atom values ...
  0 settings made for charge
    set type 892 charge 0.1  # "Ammonium CH3-NR3+"
Setting atom values ...
  0 settings made for charge
    set type 893 charge 0.115  # "Anilinium Ar-NR3+"
Setting atom values ...
  0 settings made for charge
    set type 894 charge 0.135  # "Anilinium C-NR3+"
Setting atom values ...
  0 settings made for charge
    set type 895 charge 0.015  # "Anilinium Ar-NHR2+"
Setting atom values ...
  0 settings made for charge
    set type 896 charge 0.155  # "Anilinium C-NHR2+"
Setting atom values ...
  0 settings made for charge
    set type 897 charge 0.0  # "Triene R2-C= (mid C=C)"
Setting atom values ...
  0 settings made for charge
    set type 898 charge -0.115  # "Triene RH-C= (mid C=C)"
Setting atom values ...
  0 settings made for charge
    set type 899 charge 0.15  # "Allene/Ketene H-C=C=X"
Setting atom values ...
  0 settings made for charge
    set type 900 charge -0.25  # "Allene/Ketene H2C=C=X"
Setting atom values ...
  0 settings made for charge
    set type 901 charge -0.1  # "Allene/Ketene HRC=C=X"
Setting atom values ...
  0 settings made for charge
    set type 902 charge 0.05  # "Allene/Ketene R2C=C=X"
Setting atom values ...
  0 settings made for charge
    set type 903 charge -0.1  # "Allene =C="
Setting atom values ...
  0 settings made for charge
    set type 904 charge 0.2  # "Ketene =C="
Setting atom values ...
  0 settings made for charge
    set type 905 charge -0.25  # "Ketene C=O"
Setting atom values ...
  0 settings made for charge
    set type 906 charge 0.088  # "N-Me-HIS CB"
Setting atom values ...
  0 settings made for charge
    set type 907 charge -0.222  # "Alkane CH3- (LOPLS CT_CH3)"
Setting atom values ...
  4 settings made for charge
    set type 908 charge -0.148  # "Alkane -CH2- (LOPLS CT_CH2)"
Setting atom values ...
  7 settings made for charge
    set type 909 charge 0.19  # "Alkane -CH2- (LOPLS ALT)"
Setting atom values ...
  0 settings made for charge
    set type 910 charge 0.074  # "Alkane H-C CH3 (LOPLS HC_CH3)"
Setting atom values ...
  12 settings made for charge
    set type 911 charge 0.074  # "Alkane H-C CH2 (LOPLS HC_CH2)"
Setting atom values ...
  18 settings made for charge
    set type 912 charge -0.16  # "Alkene RH-C= (LOPLS CM_CH)"
Setting atom values ...
  0 settings made for charge
    set type 913 charge 0.16  # "Alkene H-C= (LOPLS HC_CH)"
Setting atom values ...
  0 settings made for charge
    set type 914 charge 0.0  # "Alkene R2-C= (LOPLS)"
Setting atom values ...
  0 settings made for charge
    set type 915 charge -0.23  # "Alkene H2-C= (LOPLS)"
Setting atom values ...
  0 settings made for charge
    set type 916 charge -0.683  # "Alcohol -OH (LOPLS)"
Setting atom values ...
  0 settings made for charge
    set type 917 charge 0.418  # "Alcohol -OH (LOPLS)"
Setting atom values ...
  0 settings made for charge
    set type 918 charge -0.7  # "Diol -OH (LOPLS)"
Setting atom values ...
  0 settings made for charge
    set type 919 charge 0.435  # "Diol -OH (LOPLS)"
Setting atom values ...
  0 settings made for charge
    set type 920 charge -0.73  # "Triol -OH (LOPLS)"
Setting atom values ...
  0 settings made for charge
    set type 921 charge 0.465  # "Triol -OH (LOPLS)"
Setting atom values ...
  0 settings made for charge
    set type 922 charge 0.06  # "Diol & Triol H-COH (LOPLS)"
Setting atom values ...
  0 settings made for charge
    set type 923 charge 0.005  # "Chloroalkene Cl-CH= (LOPLS)"
Setting atom values ...
  0 settings made for charge
    set type 924 charge -0.07  # "Uracil & Thymine C5 (LOPLS)"
Setting atom values ...
  0 settings made for charge
    set type 925 charge 0.08  # "Uracil & Thymine C6 (LOPLS)"
Setting atom values ...
  0 settings made for charge
    set type 926 charge -0.06  # "Cytosine C5 (LOPLS)"
Setting atom values ...
  0 settings made for charge
    set type 927 charge 0.1  # "Cytosine C6 (LOPLS)"
Setting atom values ...
  0 settings made for charge
    set type 928 charge -0.06  # "CytosineH+ C5 (LOPLS)"
Setting atom values ...
  0 settings made for charge
    set type 929 charge 0.1  # "CytosineH+ C6 (LOPLS)"
Setting atom values ...
  0 settings made for charge
    set type 930 charge 0.18  # "Trifluorothymine CF3- (LOPLS)"
Setting atom values ...
  0 settings made for charge
    set type 931 charge 0.12  # "Chloroalkene Cl2-C= (LOPLS)"
Setting atom values ...
  0 settings made for charge
    set type 932 charge 0.75  # "Ester -COOR (LOPLS)"
Setting atom values ...
  0 settings made for charge
    set type 933 charge -0.55  # "Ester C=O (LOPLS)"
Setting atom values ...
  0 settings made for charge
    set type 934 charge -0.45  # "Ester CO-O-R (LOPLS)"
Setting atom values ...
  0 settings made for charge
    set type 935 charge -0.03  # "Vinyl Ether =CH-OR (LOPLS)"
Setting atom values ...
  0 settings made for charge
    set type 936 charge 0.085  # "Vinyl Ether =CR-OR (LOPLS)"
Setting atom values ...
  0 settings made for charge
    set type 937 charge -0.344  # "Cl..CH3..Cl- Sn2 TS (LOPLS)"
Setting atom values ...
  0 settings made for charge
    set type 938 charge 0.06  # "Propylene Carbonate CH2 (LOPLS)"
Setting atom values ...
  0 settings made for charge
    set type 939 charge 0.03  # "Propylene Carbonate CH2 (LOPLS ALT)"
Setting atom values ...
  0 settings made for charge
    set type 940 charge -0.25  # "Allene/Ketene H2C=C=X (LOPLS)"
Setting atom values ...
  0 settings made for charge
    set type 941 charge -0.1  # "Allene/Ketene HRC=C=X (LOPLS)"
Setting atom values ...
  0 settings made for charge
    set type 942 charge 0.05  # "Allene/Ketene R2C=C=X (LOPLS)"
Setting atom values ...
  0 settings made for charge


# ----------------- Run Section -----------------

# The lines above define the system you want to simulate.
# What you do next is up to you.
# Typically a user would minimize and equilibrate
# the system using commands similar to the following:
#  ----   examples   ----
#
#  -- minimize --
minimize 1.0e-5 1.0e-7 1000 10000
WARNING: Using 'neigh_modify every 1 delay 0 check yes' setting during minimization (src/min.cpp:188)
PPPM initialization ...
WARNING: System is not charge neutral, net charge = -0.064000000 (src/kspace.cpp:325)
  using 12-bit tables for long-range coulomb (src/kspace.cpp:340)
  G vector (1/distance) = 0.17468738
  grid = 12 12 12
  stencil order = 5
  estimated absolute RMS force accuracy = 0.026418699
  estimated relative force accuracy = 7.9559126e-05
  using double precision FFTW3
  3d grid and FFT values/proc = 4913 1728
Neighbor list info ...
  update every 1 steps, delay 0 steps, check yes
  max neighbors/atom: 2000, page size: 100000
  master list distance cutoff = 12
  ghost atom cutoff = 12
  binsize = 6, bins = 11 11 11
  1 neighbor lists, perpetual/occasional/extra = 1 0 0
  (1) pair lj/cut/coul/long, perpetual
      attributes: half, newton on
      pair build: half/bin/newton
      stencil: half/bin/3d
      bin: standard
WARNING: Bond/angle/dihedral extent > half of periodic box length (src/domain.cpp:935)
Per MPI rank memory allocation (min/avg/max) = 16.06 | 16.06 | 16.06 Mbytes
Step Temp E_pair E_mol TotEng Press 
       0            0    1041231.7    156081.77    1197313.5    1250139.7 
     371            0   -226.56723    24.381015   -202.18622  -0.44635965 
Loop time of 0.381616 on 1 procs for 371 steps with 66 atoms

102.4% CPU use with 1 MPI tasks x 1 OpenMP threads

Minimization stats:
  Stopping criterion = linesearch alpha is zero
  Energy initial, next-to-last, final = 
      1197313.48235307  -202.186215843315  -202.186215843315
  Force two-norm initial, final = 6220781.0 4.1352890
  Force max component initial, final = 2142041.0 1.4615277
  Final line search alpha, max atom move = 5.6187794e-10 8.2120016e-10
  Iterations, force evaluations = 371 645

MPI task timing breakdown:
Section |  min time  |  avg time  |  max time  |%varavg| %total
---------------------------------------------------------------
Pair    | 0.11064    | 0.11064    | 0.11064    |   0.0 | 28.99
Bond    | 0.097506   | 0.097506   | 0.097506   |   0.0 | 25.55
Kspace  | 0.16834    | 0.16834    | 0.16834    |   0.0 | 44.11
Neigh   | 0.002      | 0.002      | 0.002      |   0.0 |  0.52
Comm    | 0.001      | 0.001      | 0.001      |   0.0 |  0.26
Output  | 0          | 0          | 0          |   0.0 |  0.00
Modify  | 0          | 0          | 0          |   0.0 |  0.00
Other   |            | 0.002134   |            |       |  0.56

Nlocal:        66.0000 ave          66 max          66 min
Histogram: 1 0 0 0 0 0 0 0 0 0
Nghost:         0.00000 ave           0 max           0 min
Histogram: 1 0 0 0 0 0 0 0 0 0
Neighs:        2137.00 ave        2137 max        2137 min
Histogram: 1 0 0 0 0 0 0 0 0 0

Total # of neighbors = 2137
Ave neighs/atom = 32.378788
Ave special neighs/atom = 10.666667
Neighbor list builds = 20
Dangerous builds = 0


dump 		mydmp all atom 5000 dump.01.lammpstrj

# (Note: Some fixes, for example "shake", interfere with the minimize command,
#        You can use the "unfix" command to disable them before minimization.)
#  -- declare time step for normal MD --
timestep 0.0005
#  -- run at constant pressure (Nose-Hoover)--
# fix   fxnpt all npt temp 300.0 300.0 100.0 iso 1.0 1.0 1000.0 drag 1.0
#  -- ALTERNATELY, run at constant volume (Nose-Hoover) --
# fix   fxnvt all nvt temp 300.0 300.0 500.0 tchain 1
#  -- ALTERNATELY, run at constant volume using Langevin dynamics. --
#  -- (This is good for sparse CG polymers in implicit solvent.)   --
# fix fxLAN all langevin 300.0 300.0 5000 48279
velocity 	all create 300 84512 rot yes dist gaussian
fix fxNVE all nve  #(<--needed by fix Langevin)
#  -- Now, finally run the simulation --
thermo	1000
run   50000
PPPM initialization ...
  using 12-bit tables for long-range coulomb (src/kspace.cpp:340)
  G vector (1/distance) = 0.17468738
  grid = 12 12 12
  stencil order = 5
  estimated absolute RMS force accuracy = 0.026418699
  estimated relative force accuracy = 7.9559126e-05
  using double precision FFTW3
  3d grid and FFT values/proc = 4913 1728
Per MPI rank memory allocation (min/avg/max) = 14.93 | 14.93 | 14.93 Mbytes
Step Temp E_pair E_mol TotEng Press 
     371          300   -226.56723    24.381015   -144.06042     11.55238 
    1000    297.37778   -226.37238    24.694701   -144.05994    12.814443 
    2000    283.08902   -226.03048    27.122269   -144.05896    13.751532 
    3000    259.53958   -225.65118    31.309108   -144.05559    13.507442 
    4000    232.06647   -225.24612    36.227959   -144.05466     12.40242 
    5000     206.4822   -224.82134    40.761207   -144.05366    10.848893 
    6000    187.45505   -224.38663    44.014079   -144.05264    9.2168692 
    7000    177.25877    -223.9523     45.55634    -144.0516    7.7346071 
    8000    175.25581   -223.52876    45.521947   -144.05053    6.4418595 
    9000    178.25861   -223.12632      44.5388   -144.04944    5.2096649 
   10000    181.65017    -222.7551    43.511505   -144.04839    3.8180676 
   11000    180.91953   -222.42483    43.323813   -144.04737    2.0652801 
   12000     173.1455   -222.14822    44.551041   -144.04978  -0.13052132 
   13000     157.9792   -221.92708    47.269343   -144.04885   -2.6550835 
   14000    137.82925   -221.77206    51.019319   -144.04796    -5.210961 
   15000    117.19204   -221.68851    54.934994   -144.04725   -7.3687073 
   16000    101.32788    -221.6787    57.999516   -144.04664   -8.6804644 
   17000    94.679538   -221.74147    59.350969   -144.04608   -8.8078799 
   18000    99.507765   -221.87222    58.546629    -144.0457   -7.6292116 
   19000    115.15332   -222.06311    55.706396   -144.04545   -5.2930608 
   20000    138.14871   -222.30406    51.492115   -144.04527   -2.2014166 
   21000    163.14978   -222.55101    46.928271   -144.01203    1.1022735 
   22000    184.41355   -222.85934    43.116683   -144.01204    3.9552476 
   23000    197.39317   -223.18571    40.929056    -144.0112    5.8785098 
   24000    199.97149   -223.52411    40.767792   -144.01131    6.5777823 
   25000    192.98517   -223.86765    42.464839   -144.01142     6.027763 
   26000    179.88461   -224.21196    45.347298   -144.01154    4.4509445 
   27000    165.63907   -224.55378    48.449092   -144.01168    2.2363635 
   28000     155.2171   -224.89037    50.804837   -144.01181  -0.18016645 
   29000    152.09616   -225.21898    51.738124   -144.01182   -2.4374824 
   30000    157.24365   -225.53685    51.058657   -144.01181   -4.3366935 
   31000    168.86832   -225.84325    49.110376   -144.01419   -5.8724422 
   32000    183.00969   -226.13015    46.657466   -144.01407   -7.1898195 
   33000    194.78285   -226.39721    44.643611    -144.0139   -8.5102854 
   34000    199.90011   -226.64243     43.89755    -144.0137   -10.015868 
   35000    196.01138   -226.86499    44.873755   -144.01351   -11.756968 
   36000    183.45954   -227.06525    47.506182    -144.0133   -13.602975 
   37000     165.2242    -227.2448    51.219008   -144.01316    -15.25488 
   38000     146.0705   -227.40564    55.091136   -144.01296    -16.31786 
   39000    131.15743   -227.55175     58.12524   -144.01441   -16.414608 
   40000    124.52182   -227.68171    59.540977   -144.01429   -15.298228 
   41000    127.88927   -227.79222    59.004872   -144.00846   -12.943775 
   42000    140.16653   -227.89458    56.728515   -144.00842   -9.5929244 
   43000    157.76418   -227.98181    53.406153   -144.00843   -5.6896599 
   44000    175.65091   -228.05203    50.010775   -144.00842   -1.8017992 
   45000      188.823   -228.10334    47.509855   -144.00853    1.5144118 
   46000    193.75055   -228.13392    46.585607   -144.00863    3.8426316 
   47000    189.37153   -228.14504    47.442699   -144.01111    4.9949561 
   48000      177.343   -228.13152     49.75972   -144.01112    5.0485698 
   49000    161.48262   -228.09615    52.797292   -144.01117    4.2945719 
   50000    146.57684    -228.0371    55.628729   -144.00872    3.1543668 
   50371    142.19834    -228.0142    56.450857   -144.01204    2.7172138 
Loop time of 28.6825 on 1 procs for 50000 steps with 66 atoms

Performance: 0.075 ns/day, 318.694 hours/ns, 1743.225 timesteps/s
94.8% CPU use with 1 MPI tasks x 1 OpenMP threads

MPI task timing breakdown:
Section |  min time  |  avg time  |  max time  |%varavg| %total
---------------------------------------------------------------
Pair    | 5.6546     | 5.6546     | 5.6546     |   0.0 | 19.71
Bond    | 8.0184     | 8.0184     | 8.0184     |   0.0 | 27.96
Kspace  | 14.767     | 14.767     | 14.767     |   0.0 | 51.49
Neigh   | 0          | 0          | 0          |   0.0 |  0.00
Comm    | 0.01687    | 0.01687    | 0.01687    |   0.0 |  0.06
Output  | 0.031769   | 0.031769   | 0.031769   |   0.0 |  0.11
Modify  | 0.11081    | 0.11081    | 0.11081    |   0.0 |  0.39
Other   |            | 0.08283    |            |       |  0.29

Nlocal:        66.0000 ave          66 max          66 min
Histogram: 1 0 0 0 0 0 0 0 0 0
Nghost:         0.00000 ave           0 max           0 min
Histogram: 1 0 0 0 0 0 0 0 0 0
Neighs:        2137.00 ave        2137 max        2137 min
Histogram: 1 0 0 0 0 0 0 0 0 0

Total # of neighbors = 2137
Ave neighs/atom = 32.378788
Ave special neighs/atom = 10.666667
Neighbor list builds = 0
Dangerous builds = 0
write_data	data.01a.lammps
System init for write_data ...
PPPM initialization ...
  using 12-bit tables for long-range coulomb (src/kspace.cpp:340)
  G vector (1/distance) = 0.17468738
  grid = 12 12 12
  stencil order = 5
  estimated absolute RMS force accuracy = 0.026418699
  estimated relative force accuracy = 7.9559126e-05
  using double precision FFTW3
  3d grid and FFT values/proc = 4913 1728

timestep 0.005
run   100000
PPPM initialization ...
  using 12-bit tables for long-range coulomb (src/kspace.cpp:340)
  G vector (1/distance) = 0.17468738
  grid = 12 12 12
  stencil order = 5
  estimated absolute RMS force accuracy = 0.026418699
  estimated relative force accuracy = 7.9559126e-05
  using double precision FFTW3
  3d grid and FFT values/proc = 4913 1728
Per MPI rank memory allocation (min/avg/max) = 15.93 | 15.93 | 15.93 Mbytes
Step Temp E_pair E_mol TotEng Press 
   50371    142.19834    -228.0142    56.450857   -144.01204    2.7172138 
   51000    175.89649   -227.16569    49.078195   -144.00708    3.2393935 
   52000    168.14518    -225.0974    48.510837   -144.00799    36.079094 
   53000    167.00674   -223.19818      46.8312   -144.00898    33.729377 
   54000     137.6633   -221.50549    50.819681   -144.01319    17.370276 
   55000    135.17303   -219.16098    48.955371   -144.01547   -1.3018184 
   56000    119.81215   -217.74268    50.513075   -144.01569   -24.216103 
   57000    158.44799   -217.89151    43.282162   -143.90963    5.3309556 
   58000    173.31014   -218.25881    40.788481   -143.89103    3.7475658 
   59000     164.0987   -221.33496    45.653755   -143.88665    34.267357 
   60000     175.9573   -223.65051    45.667727   -143.89059    8.8163757 
   61000    140.27278   -225.97617    54.918812   -143.87914    17.705324 
   62000    158.68963   -227.17786    52.549362   -143.88196    5.6080246 
   63000    139.48679   -227.24538    56.321734   -143.89771   -11.310361 
   64000    125.32082   -226.11852    57.929815   -143.90747   -7.8637798 
   65000    167.31341   -226.04659    49.745546   -143.88362   -40.307221 
   66000    143.08584    -225.1002    53.589797   -143.78714    -14.00538 
   67000    148.75477   -224.07291    51.431557   -143.81972   -27.798309 
   68000    161.16841   -223.36115    48.317375   -143.81697   -8.4820432 
   69000    133.92284    -222.1489    52.348919   -143.85208   -17.902553 
   70000     151.4793   -223.25761    50.099196    -143.8089   -22.820398 
   71000     143.5677   -224.57557    52.799338   -143.95961   -7.8462011 
   72000    155.89946   -225.25376    51.085038   -143.96279   -10.837272 
   73000    131.90934   -224.66515    55.122077   -143.98529    6.6218152 
   74000    130.33697   -223.82729     54.59834   -143.97582   -13.168526 
   75000    153.90534   -224.38538    50.594607    -143.9712   -16.729796 
   76000    130.78579   -225.50058    56.217387    -143.9431   -29.149167 
   77000    146.62275   -225.97051    53.621654    -143.9403   -17.660964 
   78000    150.51194   -225.51738    52.386893    -143.9684   -1.3576409 
   79000    159.23447   -224.07507    49.263002   -143.95996     8.075174 
   80000    161.90466   -223.45323    48.145553   -143.93822    14.823461 
   81000    148.73945   -223.91834    51.158815   -143.94086  -0.32225194 
   82000    141.77734   -224.18627    52.791426   -143.92511   -7.8227335 
   83000    131.71058   -224.20674    54.759029   -143.92844   -24.477473 
   84000    149.36823   -224.25616    51.386332   -143.92933   -14.563711 
   85000    156.93483   -223.85848    49.526902   -143.92504   0.79902982 
   86000    154.29204   -224.15619    50.335999    -143.9257    26.496189 
   87000     156.2729   -224.39274    50.183097   -143.93135    35.898581 
   88000    153.84489   -224.96236    51.225171   -143.92934    23.194199 
   89000    146.13813    -224.7222    52.484904   -143.92265    6.0375655 
   90000    152.20772   -223.23227    49.817874   -143.92375   -6.5152751 
   91000    151.37621   -221.86987    48.611925    -143.9284   -2.7860947 
   92000    157.20984   -221.47756     47.08302   -143.93472    8.2395909 
   93000    159.61488   -223.30035    48.439146    -143.9354    16.149906 
   94000    136.21819   -225.15333    54.837122   -143.92358    16.813234 
   95000    163.03288   -225.14347    49.624886   -143.93053    21.730715 
   96000    147.10587   -222.65112    50.187708   -143.96126    15.727753 
   97000    156.62803   -222.11476    47.806658   -143.96101    10.835013 
   98000    171.57015   -223.18668    45.981108    -143.9634   -17.197474 
   99000    173.64316   -224.12413    46.511261   -143.96905   -17.457582 
  100000    191.49504   -224.86731    43.776301   -143.98834   -19.070267 
  101000    166.23596   -226.15848    49.957057   -143.99277   0.41594723 
  102000    154.46688   -226.79071    52.890208   -143.97213    19.531246 
  103000    140.28234     -228.119    56.947692   -143.99123    9.1326367 
  104000    153.15049   -229.06139    55.394701   -143.99338    11.790215 
  105000    165.57234    -227.9033    51.827143   -143.99608    -19.22872 
  106000    154.82226   -225.71933    51.724323   -143.99778   -4.3991666 
  107000    173.35442   -223.66657    46.074178   -144.00452   -14.523676 
  108000    180.29602    -222.3999    43.457578   -144.00949    3.5262418 
  109000    163.58222   -220.12045    44.415354   -144.01061    15.649219 
  110000    135.96735   -219.18224    48.810182   -144.02802    11.078374 
  111000    132.44373   -218.96301     49.27667   -144.02502    26.462207 
  112000    155.75189   -221.81634     47.61314   -144.02586   -13.353433 
  113000    126.36044   -222.75618    54.221259   -144.05225   -5.4116592 
  114000    140.14306   -226.55221    55.345761   -144.05336   -27.454754 
  115000      163.178   -227.64662    51.983464   -144.04699   -11.175824 
  116000    177.49292    -227.2595     48.82424   -144.04554    3.3813162 
  117000     176.9514   -226.17329    47.824373   -144.06411   -8.0467521 
  118000    141.82543   -226.51777    55.021802   -144.01692    8.0976348 
  119000    155.46744   -227.70312    53.566517   -144.01438   -22.233367 
  120000    154.66729   -227.88073    53.908083   -144.00545    3.5152187 
  121000    153.21067   -226.90204     53.20665   -144.01041   -16.120268 
  122000    148.60275   -223.97487    51.186215   -143.99648    4.1371231 
  123000    144.66079     -223.746    51.700784    -144.0168    11.133802 
  124000    164.47589   -222.09415    46.271846   -143.95466    10.872083 
  125000    164.68217   -220.39663    44.522459   -143.96656    32.540839 
  126000    155.74056   -218.28412    44.145395   -143.96358   -4.4485294 
  127000    138.64745   -219.03676    48.208876   -143.96457     17.16622 
  128000    160.77784   -221.47405    46.354224   -143.96869   -8.0535304 
  129000    160.49444   -223.37867    48.327657   -143.95479    21.382234 
  130000    155.25173   -224.89853     50.86672   -143.95138    14.698914 
  131000    165.63372   -226.31087    50.270508   -143.94839    7.3768844 
  132000    134.94364   -227.89774    57.844485   -143.90756    12.723999 
  133000    153.03169   -229.10906    55.556742   -143.90203   -10.318274 
  134000    160.06558    -227.1675    52.249701   -143.90467    17.710264 
  135000    168.91833   -224.35101    47.692124   -143.93051   -5.9597817 
  136000    166.56107   -222.53508    46.282337    -143.9811    15.010764 
  137000    167.11912   -222.18837    45.801842   -144.00675   -6.7696099 
  138000    175.95975   -221.70698    43.610347   -144.00397   -3.7076034 
  139000    142.99362   -221.30639    49.628552   -143.97244   -8.2854781 
  140000    161.93489   -222.73476    47.343495   -144.01595   -20.349146 
  141000    152.76242   -224.40179     50.72657    -144.0771    6.7166705 
  142000    157.22588   -225.46694    50.893712    -144.1103    1.7390194 
  143000    156.88012   -225.78783    51.369354   -144.02254    25.374971 
  144000    146.98705   -225.63299    53.112883   -144.04097   -3.3327378 
  145000    161.31588   -225.11498    49.818995    -144.0406   -10.814336 
  146000    156.41534   -225.33582    51.000311   -144.02962   -28.489765 
  147000    167.91931   -226.04066    49.438731   -144.06712   -25.240131 
  148000     144.2656   -225.41829    53.375464   -144.09098   -12.189013 
  149000    139.02734    -222.6238    51.616798   -144.07009   -11.272106 
  150000    151.10018   -220.88256    47.539471   -144.06703    6.5533978 
  150371    171.82141   -221.77161    44.414094   -144.06666    0.9260259 
Loop time of 64.6537 on 1 procs for 100000 steps with 66 atoms

Performance: 0.668 ns/day, 35.919 hours/ns, 1546.703 timesteps/s
96.1% CPU use with 1 MPI tasks x 1 OpenMP threads

MPI task timing breakdown:
Section |  min time  |  avg time  |  max time  |%varavg| %total
---------------------------------------------------------------
Pair    | 12.659     | 12.659     | 12.659     |   0.0 | 19.58
Bond    | 18.19      | 18.19      | 18.19      |   0.0 | 28.13
Kspace  | 33.275     | 33.275     | 33.275     |   0.0 | 51.47
Neigh   | 0          | 0          | 0          |   0.0 |  0.00
Comm    | 0.054827   | 0.054827   | 0.054827   |   0.0 |  0.08
Output  | 0.062537   | 0.062537   | 0.062537   |   0.0 |  0.10
Modify  | 0.24422    | 0.24422    | 0.24422    |   0.0 |  0.38
Other   |            | 0.1682     |            |       |  0.26

Nlocal:        66.0000 ave          66 max          66 min
Histogram: 1 0 0 0 0 0 0 0 0 0
Nghost:         0.00000 ave           0 max           0 min
Histogram: 1 0 0 0 0 0 0 0 0 0
Neighs:        2127.00 ave        2127 max        2127 min
Histogram: 1 0 0 0 0 0 0 0 0 0

Total # of neighbors = 2127
Ave neighs/atom = 32.227273
Ave special neighs/atom = 10.666667
Neighbor list builds = 5
Dangerous builds = 0

write_data	data.01a.lammps
System init for write_data ...
PPPM initialization ...
  using 12-bit tables for long-range coulomb (src/kspace.cpp:340)
  G vector (1/distance) = 0.17468738
  grid = 12 12 12
  stencil order = 5
  estimated absolute RMS force accuracy = 0.026418699
  estimated relative force accuracy = 7.9559126e-05
  using double precision FFTW3
  3d grid and FFT values/proc = 4913 1728


timestep 0.05
run   100000
PPPM initialization ...
  using 12-bit tables for long-range coulomb (src/kspace.cpp:340)
  G vector (1/distance) = 0.17468738
  grid = 12 12 12
  stencil order = 5
  estimated absolute RMS force accuracy = 0.026418699
  estimated relative force accuracy = 7.9559126e-05
  using double precision FFTW3
  3d grid and FFT values/proc = 4913 1728
Per MPI rank memory allocation (min/avg/max) = 15.93 | 15.93 | 15.93 Mbytes
Step Temp E_pair E_mol TotEng Press 
  150371    171.82141   -221.77161    44.414094   -144.06666    0.9260259 
  151000    144.33356   -223.24576    51.209521   -144.07123    8.9084403 
  152000    140.09697   -218.22453    46.980177   -144.10019    13.558813 
  153000    159.10093   -220.08572    45.302159   -143.95733     8.925158 
  154000    146.37368   -223.15516    50.947926   -143.84694   -25.803375 
  155000    150.38541   -220.14952    47.113434   -143.89851    18.808907 
  156000    164.11398   -218.29064    42.518857   -143.97426   -2.5000396 
  157000    155.35185   -224.37109    50.229895   -144.04136     -13.7261 
  158000    142.60434   -226.05944    54.375443   -144.05403   -11.285202 
  159000    156.52503   -219.42513    45.219848   -143.87814    18.245633 
  160000    160.31543   -223.62613     48.64361   -143.92098   -8.6666881 
  161000    140.34479   -223.07971    51.989418   -143.89812   -10.218934 
  162000    161.80835   -224.94913    49.806232   -143.79211   -11.697142 
  163000    152.39286   -223.00047    49.680276   -143.79368   -1.1308753 
  164000    141.44768   -224.22998    52.887655   -143.93646    11.789191 
  165000    149.01851   -228.34677    55.562612   -143.91143   -29.437076 
  166000    156.70509   -223.75152    49.435446   -143.95405    1.1974841 
  167000    150.23887   -225.69231    52.660553   -143.92258   -5.2278668 
  168000    160.62404   -228.63764    53.574957   -143.94135   -16.078195 
  169000    155.12656   -225.94705    51.944738   -143.94613    13.790298 
  170000    152.37224   -224.62765    51.129281   -143.97584   -11.895356 
  171000    169.85617   -225.46828    48.553669   -144.00453    6.6732097 
  172000     164.2951    -225.4637    49.720562   -143.91053   -3.1084206 
  173000     143.3053   -224.88982    53.273369   -143.85067    2.1550378 
  174000    153.84224   -223.07551    49.481361   -143.78681    18.582895 
  175000    144.84633   -223.68898    51.772016    -143.8526    2.9626615 
  176000    165.63991   -225.03625    49.107091   -143.83599   -19.463534 
  177000    142.84902   -221.68838    50.201053   -143.80995    11.860439 
  178000    144.74116   -223.23043     51.30891   -143.87754   -16.086338 
  179000    133.23028   -225.49237    55.785457    -143.8932   -17.514169 
  180000    134.00297   -223.30928    53.386562   -143.95929    10.761672 
  181000    149.89291    -223.6445    50.641068   -143.96128   -32.810682 
  182000    156.47399   -223.39996    49.116105    -143.9666   -18.185905 
  183000    154.54031   -221.72502    47.832054   -143.95037   -12.793133 
  184000    141.15359   -220.15328    48.821497    -143.9829     24.10117 
  185000    159.62389   -223.04657    48.097561   -144.02146   -20.327933 
  186000    144.79448   -222.64882    50.527252   -144.06725    5.7162219 
  187000    152.06276   -227.42532    53.973829   -143.98892    6.4394199 
  188000    151.91846   -226.73132     53.41522    -143.8815    -8.948993 
  189000    128.37155   -227.36958    58.662327   -143.83492    -5.448209 
  190000     154.1317   -226.59254     52.88932   -143.83979    1.8516379 
  191000    132.24907   -226.62525    57.200234   -143.80141    1.2818724 
  192000    151.89833   -228.84418    55.450674   -143.96281    9.7085672 
  193000    159.05349   -226.23981    51.417069   -144.00571    -3.249964 
  194000    140.64068   -226.28487    55.114397   -143.92097   -8.9927251 
  195000    162.55288   -227.35531    51.946254     -143.914    33.371679 
  196000    150.22359   -230.47304    57.527884   -143.83894   -4.2113026 
  197000    139.42738   -226.43561    55.618162   -143.80303   -33.606033 
  198000    130.45408   -227.53973    58.458808    -143.8051    28.320608 
  199000    151.10209   -228.42877    55.361345     -143.791    6.5051296 
  200000    172.53679   -229.24537    51.999317   -143.81659   -21.743783 
  201000    163.99683   -219.53042     44.00311   -143.75249    21.405786 
  202000    184.98127   -221.75183    42.118657   -143.79256   -6.9590012 
  203000    156.49802   -224.48334    50.364371   -143.79706   -6.9094099 
  204000    162.64577   -219.40121    44.146067   -143.74209   -17.349219 
  205000    180.08186   -219.50486    40.939568   -143.67395    19.025487 
  206000    172.78269   -222.46096    45.304169   -143.67969   -34.724274 
  207000    175.10511   -221.29873    43.705384   -143.66627    9.5695229 
  208000    163.71833   -219.23564    43.801972   -143.71281    2.8389297 
  209000    179.86303   -220.54417    41.977984   -143.71724    -13.28724 
  210000    177.51599   -225.85298    47.694213   -143.76457   -9.2552083 
  211000    189.30282   -224.55131    44.065814   -143.80757   -1.9259098 
  212000    153.35635   -219.30592    45.773836   -143.81888   -8.4071586 
  213000    194.26735   -229.62919     48.16715   -143.82223   -9.3619457 
  214000    168.65958   -221.16667    44.565775   -143.92265    14.433563 
  215000    167.19629   -225.19599    48.943391   -143.85787   -9.9811517 
  216000    172.80635   -222.72719     45.36237   -143.88313    3.4533328 
  217000    171.61331   -222.25835    45.245329   -143.76249    13.443801 
  218000    169.33844   -218.53799    41.963194   -143.76502    12.801911 
  219000    189.40209      -221.79    41.350826   -143.74201   -33.252248 
  220000    178.66057   -224.25527    45.901539   -143.73777    5.7396247 
  221000    181.41109   -222.64377    43.707674   -143.78722     -19.4959 
  222000    182.99437   -223.04341    43.867543   -143.72022    11.643864 
  223000    199.29555   -224.73906    42.337953   -143.78707    9.2094975 
  224000     190.8754    -225.0407    44.285925   -143.77216   -17.261606 
  225000    195.16435   -219.27135    37.724665   -143.73307    3.8675344 
  226000    183.12856   -220.84751    41.647041   -143.71882     17.59239 
  227000    199.88541   -225.14199    42.634462    -143.7792   -15.214947 
  228000    170.37674   -219.61719     42.81993   -143.78632   -16.413932 
  229000     171.2527   -218.76069    41.744267   -143.83576   -1.8919014 
  230000    153.79153   -220.37998    46.735189   -143.84727    13.682181 
  231000    151.52775   -224.58724    51.572051   -143.65629  -0.80975096 
  232000    174.79593   -218.29142    40.642368   -143.78188    27.847289 
  233000    190.60876   -222.39891    41.767117   -143.70084   -16.225562 
  234000    161.41964   -219.40984      44.4648   -143.66955    11.934077 
  235000    191.04606   -221.70763    40.868046   -143.82391    6.3948648 
  236000    199.09775   -222.81405    40.400513   -143.83783 -0.013198777 
  237000    196.61647   -222.99002    41.064144   -143.83091   -12.676758 
  238000    193.58572   -224.72307    43.503151   -143.71217    5.4853899 
  239000    187.44878    -222.6989    42.596833   -143.78337   -2.7182743 
  240000     166.8461    -226.6695    50.614696   -143.72793   -17.938718 
  241000    186.22152   -220.83014    40.878966   -143.87026   -1.8326836 
  242000    177.51645   -219.77069    41.531135   -143.84527    12.060596 
  243000    158.39271   -221.41938     47.04347    -143.6869    7.4363097 
  244000    178.02077   -221.49926    43.275041   -143.73223   -8.4754549 
  245000    203.95257   -218.98775    35.798745   -143.67266    45.157608 
  246000    181.20063   -219.41883    40.576914   -143.73381   -24.330833 
  247000     180.8213     -224.194    45.405312   -143.75408   -18.425415 
  248000    170.11986   -219.44044    42.811005   -143.66826    31.342741 
  249000    154.74649   -220.25464    46.606124   -143.66598   -44.519697 
  250000    175.34172   -218.81591    41.138686    -143.7043    12.250099 
  250371    166.73697   -217.85445    41.757114   -143.79161     4.664475 
Loop time of 57.8861 on 1 procs for 100000 steps with 66 atoms

Performance: 7.463 ns/day, 3.216 hours/ns, 1727.531 timesteps/s
97.5% CPU use with 1 MPI tasks x 1 OpenMP threads

MPI task timing breakdown:
Section |  min time  |  avg time  |  max time  |%varavg| %total
---------------------------------------------------------------
Pair    | 10.666     | 10.666     | 10.666     |   0.0 | 18.43
Bond    | 17.021     | 17.021     | 17.021     |   0.0 | 29.41
Kspace  | 29.784     | 29.784     | 29.784     |   0.0 | 51.45
Neigh   | 0.009576   | 0.009576   | 0.009576   |   0.0 |  0.02
Comm    | 0.030893   | 0.030893   | 0.030893   |   0.0 |  0.05
Output  | 0.04597    | 0.04597    | 0.04597    |   0.0 |  0.08
Modify  | 0.21486    | 0.21486    | 0.21486    |   0.0 |  0.37
Other   |            | 0.1129     |            |       |  0.19

Nlocal:        66.0000 ave          66 max          66 min
Histogram: 1 0 0 0 0 0 0 0 0 0
Nghost:         0.00000 ave           0 max           0 min
Histogram: 1 0 0 0 0 0 0 0 0 0
Neighs:        1975.00 ave        1975 max        1975 min
Histogram: 1 0 0 0 0 0 0 0 0 0

Total # of neighbors = 1975
Ave neighs/atom = 29.924242
Ave special neighs/atom = 10.666667
Neighbor list builds = 52
Dangerous builds = 0

write_data	data.01a.lammps
System init for write_data ...
PPPM initialization ...
  using 12-bit tables for long-range coulomb (src/kspace.cpp:340)
  G vector (1/distance) = 0.17468738
  grid = 12 12 12
  stencil order = 5
  estimated absolute RMS force accuracy = 0.026418699
  estimated relative force accuracy = 7.9559126e-05
  using double precision FFTW3
  3d grid and FFT values/proc = 4913 1728


timestep 0.05
run   100000
PPPM initialization ...
  using 12-bit tables for long-range coulomb (src/kspace.cpp:340)
  G vector (1/distance) = 0.17468738
  grid = 12 12 12
  stencil order = 5
  estimated absolute RMS force accuracy = 0.026418699
  estimated relative force accuracy = 7.9559126e-05
  using double precision FFTW3
  3d grid and FFT values/proc = 4913 1728
Per MPI rank memory allocation (min/avg/max) = 15.93 | 15.93 | 15.93 Mbytes
Step Temp E_pair E_mol TotEng Press 
  250371    166.73697   -217.85445    41.757114   -143.79161     4.664475 
  251000    164.72742   -224.60699    48.941791   -143.74882    7.8042292 
  252000    161.34922   -222.10516    47.066258   -143.77706    1.8902495 
  253000    189.22146   -224.54583    44.164244   -143.71943   0.56305918 
  254000    190.46524   -220.00375    39.400042   -143.70056    5.6130057 
  255000    154.97762   -221.97376    47.991023   -143.95541   -9.5899566 
  256000     189.6451   -219.20576    38.513815   -143.94771    1.6575394 
  257000    145.97681   -220.04844    47.690747    -144.0743    10.317589 
  258000    167.62577    -222.3651    45.927039   -143.96012    -13.33489 
  259000    165.38785   -218.41261    42.395597   -143.97267    10.781204 
  260000    186.57231   -224.23148    44.166932   -143.91567    23.705331 
  261000    175.77804   -216.41239    38.362701   -143.99223  -0.99090233 
  262000    189.63812   -220.93027    40.399009   -143.78837   -19.299789 
  263000    149.43599   -222.33429    49.529173    -143.8515    22.261502 
  264000    175.07057   -221.62031    43.995369   -143.70456   -7.2696742 
  265000    169.95241   -222.20934    45.554294   -143.72632   -17.549522 
  266000    165.99511   -223.55761    47.660162   -143.73545    13.860244 
  267000    184.15951   -222.80936    43.401799   -143.72617    8.1965976 
  268000    189.51682   -219.85408    39.360711   -143.77398    5.0360989 
  269000    180.34595   -223.00422    44.244368   -143.81735   -2.1687579 
  270000    197.91286   -223.58482    41.429222   -143.80945    13.869387 
  271000    203.36942   -218.79255    35.527332   -143.86186    3.0347564 
  272000    186.35158   -218.12514    38.172004   -143.84702   -8.9864571 
  273000    157.07014    -221.6947    47.481956   -143.77999    6.0953975 
  274000    187.69638   -225.54224    45.455284   -143.72029   -3.4414803 
  275000    200.51451   -223.49072    40.958491   -143.68201    27.879382 
  276000    189.54344   -223.29825     42.75237   -143.82134   -13.495468 
  277000    183.88881   -223.73109    44.363672   -143.73847   -28.078013 
  278000    184.40391   -220.71716    41.195894   -143.79252     23.62663 
  279000     187.7645   -220.98909    40.782271   -143.82695   -17.379651 
  280000    153.79241   -224.81475    51.234128   -143.78293    4.0431639 
  281000    178.33584   -220.67948    42.331228   -143.79521   -15.423741 
  282000    177.88977   -225.07816    46.811415   -143.80014   -13.986437 
  283000    177.79691   -223.12413    44.794878   -143.88063    26.554219 
  284000    177.94668   -222.94641    44.603534   -143.86524   -22.759525 
  285000    170.28704   -222.79273    45.934163     -143.865    15.504754 
  286000    175.98184   -223.10745    45.109444   -143.90106    1.4008454 
  287000    170.46473   -224.22472    47.249002   -143.94772   -24.040849 
  288000    162.98087   -221.43464      46.0107   -143.84597     6.796293 
  289000    196.10701   -222.92322    41.078774   -143.84819    3.4984535 
  290000    178.61149   -222.52846    43.997597   -143.92441    31.461688 
  291000    178.98991   -220.58776    41.994945   -143.91304   -1.2140463 
  292000    157.23793   -221.24582    46.907162   -143.87339   -11.777912 
  293000    178.17781   -224.34464    45.977797   -143.84442   -1.1054104 
  294000    183.18685   -222.66807    43.365696   -143.80944    19.716774 
  295000    195.85482   -220.14003    38.385645     -143.807   -4.1683907 
  296000    186.77732   -221.53202    41.562622   -143.78079   -22.598125 
  297000    171.33773   -223.42433     46.45502   -143.77217   -5.8153127 
  298000    163.87764   -223.52002    47.966188   -143.80211    9.3934343 
  299000    162.61839   -217.33649    42.137395   -143.69135    28.771025 
  300000    163.44749   -224.76052    49.254257   -143.83788   -43.446306 
  301000    150.22733   -221.56054    48.625328   -143.82827    32.832466 
  302000    179.22801   -219.54968    41.091933   -143.73185   -25.870054 
  303000    158.16552   -220.50613    46.104811   -143.75633    8.0076261 
  304000    180.52279   -221.72372    42.908521   -143.83843  -0.15439372 
  305000     173.2617   -220.61272    43.123009    -143.9198   -19.909484 
  306000     187.9637   -223.19087    42.780345   -143.99206    18.838051 
  307000    147.24278   -221.18387    48.605269   -144.04993   -18.449167 
  308000    178.11287   -225.49935     46.97098   -144.01853    -11.40612 
  309000    173.62113   -219.38327    41.721402   -144.02232    9.5944055 
  310000    177.93785   -226.16329    47.683443   -144.00391    4.0159283 
  311000    188.34746   -223.12924    42.612911   -144.02351    32.133274 
  312000    193.28324   -222.64299    41.210046   -143.98381   -23.736911 
  313000    186.60552   -221.58241    41.404609   -144.02248  -0.11803622 
  314000    173.86521   -225.83191    48.220468    -143.9246   -16.384962 
  315000    185.30208   -221.78447    41.948652   -143.93305    18.800983 
  316000    180.86084   -223.91947    44.944207     -143.933    20.329849 
  317000    176.92218   -224.28007    46.001993   -143.99894   -13.551251 
  318000    171.99936   -221.25271    44.041052   -143.88633    4.0884549 
  319000    177.86317   -221.28658    43.056091   -143.76903    9.7206948 
  320000    182.04659    -220.9395     41.88783   -143.77966   -14.384802 
  321000    175.74987   -217.51177    39.675742   -143.78403   -25.215547 
  322000    156.82623     -218.898    44.634972   -143.87753   -7.6839008 
  323000    195.72475   -221.71948    39.988068   -143.80922   -22.131357 
  324000    188.00861   -217.10333    36.889021   -143.78714    29.043468 
  325000    181.33252   -217.78674      38.8672   -143.78589    -19.23442 
  326000    196.88427   -222.47957    40.608284   -143.72444   -1.0294794 
  327000    165.35255   -222.79098    47.152753   -143.60073   -1.1102249 
  328000    158.68221   -220.23034    45.745782   -143.73946    1.6956664 
  329000      188.026   -220.25333     39.99234   -143.83046    14.020312 
  330000    159.11179   -221.93435    47.200474   -143.90554   -8.1919519 
  331000      167.687   -224.58283    48.262427    -143.8306    -11.77049 
  332000    192.68164   -220.33961    39.151879   -143.85515    37.766734 
  333000    181.96537   -224.54563    45.529504   -143.75985   -17.629478 
  334000    198.76418   -224.41937    42.134378    -143.7739     15.77544 
  335000    197.89681   -217.39965    35.176599   -143.88002    13.825035 
  336000    174.82479   -221.36295    43.507653   -143.98253    1.4169595 
  337000    203.08573   -221.55447    38.332223   -143.87385    18.452337 
  338000    200.25872   -223.81966     41.14258   -143.87642   -24.117237 
  339000    183.22011    -222.2858    42.898818    -143.8876    11.491333 
  340000    183.18935   -222.84801    43.389519   -143.96507   -14.235313 
  341000    179.19739   -225.49821    46.769609   -144.00863   0.16175475 
  342000    174.04331   -222.76035    45.084384   -143.95461   -12.605375 
  343000    159.75103   -222.58647    47.586538   -144.04775 -0.015670888 
  344000    170.57837   -224.61887    47.563691   -144.00516     21.19648 
  345000     186.6473   -225.16963    44.973715    -144.0325    11.266002 
  346000    161.21537   -225.44614    50.236612   -143.97362   -23.250582 
  347000    167.94911   -225.38462    48.856642   -143.98739    12.642179 
  348000    173.85539    -222.2564    44.513069   -144.05839    22.934124 
  349000    176.58272   -224.78409    46.578198   -143.99252    -22.99208 
  350000    197.50849   -221.79884    39.586922   -143.94412    3.9047128 
  350371    207.65816   -224.40744    40.314909   -143.85821   -1.1575283 
Loop time of 64.181 on 1 procs for 100000 steps with 66 atoms

Performance: 6.731 ns/day, 3.566 hours/ns, 1558.094 timesteps/s
96.0% CPU use with 1 MPI tasks x 1 OpenMP threads

MPI task timing breakdown:
Section |  min time  |  avg time  |  max time  |%varavg| %total
---------------------------------------------------------------
Pair    | 12.149     | 12.149     | 12.149     |   0.0 | 18.93
Bond    | 18.109     | 18.109     | 18.109     |   0.0 | 28.22
Kspace  | 33.395     | 33.395     | 33.395     |   0.0 | 52.03
Neigh   | 0.00812    | 0.00812    | 0.00812    |   0.0 |  0.01
Comm    | 0.066809   | 0.066809   | 0.066809   |   0.0 |  0.10
Output  | 0.04974    | 0.04974    | 0.04974    |   0.0 |  0.08
Modify  | 0.24713    | 0.24713    | 0.24713    |   0.0 |  0.39
Other   |            | 0.156      |            |       |  0.24

Nlocal:        66.0000 ave          66 max          66 min
Histogram: 1 0 0 0 0 0 0 0 0 0
Nghost:         0.00000 ave           0 max           0 min
Histogram: 1 0 0 0 0 0 0 0 0 0
Neighs:        2052.00 ave        2052 max        2052 min
Histogram: 1 0 0 0 0 0 0 0 0 0

Total # of neighbors = 2052
Ave neighs/atom = 31.090909
Ave special neighs/atom = 10.666667
Neighbor list builds = 61
Dangerous builds = 0

write_data	data.01a.lammps
System init for write_data ...
PPPM initialization ...
  using 12-bit tables for long-range coulomb (src/kspace.cpp:340)
  G vector (1/distance) = 0.17468738
  grid = 12 12 12
  stencil order = 5
  estimated absolute RMS force accuracy = 0.026418699
  estimated relative force accuracy = 7.9559126e-05
  using double precision FFTW3
  3d grid and FFT values/proc = 4913 1728


timestep 0.1
run   100000
PPPM initialization ...
  using 12-bit tables for long-range coulomb (src/kspace.cpp:340)
  G vector (1/distance) = 0.17468738
  grid = 12 12 12
  stencil order = 5
  estimated absolute RMS force accuracy = 0.026418699
  estimated relative force accuracy = 7.9559126e-05
  using double precision FFTW3
  3d grid and FFT values/proc = 4913 1728
Per MPI rank memory allocation (min/avg/max) = 15.93 | 15.93 | 15.93 Mbytes
Step Temp E_pair E_mol TotEng Press 
  350371    207.65816   -224.40744    40.314909   -143.85821   -1.1575283 
  351000    188.87029   -219.19946    38.910608   -143.69473    13.719783 
  352000    209.17666   -222.33052    38.042147   -143.75984    32.436758 
  353000     182.9262   -220.36092    41.221184   -143.69729   -6.6368122 
  354000    163.59708   -223.92788     48.65104   -143.57947   -8.9658857 
  355000    187.83659   -218.17503    38.147992    -143.6332    4.9423855 
  356000    180.88323   -219.36657    40.462834   -143.85713   -9.2323669 
  357000    181.42977   -220.03829    41.234355   -143.65143   -7.3333769 
  358000    201.51773   -222.99186    40.116803   -143.83046   -10.814429 
  359000    174.54938   -221.56249    43.821185    -143.9219   -14.097115 
  360000    161.30293   -220.43842    45.269108   -143.91644    1.2699746 
  361000    178.64287   -228.15833    49.629991   -143.91581   0.22926251 
  362000    186.30788   -229.66039     49.62513   -143.93761   -13.281767 
  363000    160.98504   -225.11804    50.058086   -143.86867    27.080638 
  364000    185.40606   -226.60856    46.873971   -143.81167    13.901121 
  365000    185.23869   -222.58839    42.815914   -143.88199   -2.4321396 
  366000    160.96028   -221.87092    46.801376   -143.88306   -4.2561544 
  367000    182.72084    -223.7533    44.565839   -143.78482    17.171132 
  368000    188.36704   -220.56021    40.265723   -143.79787    25.861228 
  369000    178.02264   -223.09824    44.783064   -143.82281   -21.301122 
  370000    185.51774   -224.64799      44.7707   -143.93274   -3.0890076 
  371000    185.76206   -223.84589    43.921052   -143.93294    -9.354765 
  372000    179.19201   -221.83329    43.249786   -143.86458     19.16262 
  373000     186.6031   -223.91001     43.86998   -143.88518    21.158474 
  374000    174.29338    -228.5553    50.962403   -143.82309   -14.815343 
  375000    170.01752   -222.02472    45.263005   -143.82037   -14.697515 
  376000    182.47895   -224.38306    45.134854   -143.89242   -2.2654978 
  377000    171.45071   -222.90399    45.723103   -143.96186   -13.869372 
  378000     189.1838   -228.13496    47.595596   -143.88451   -8.7647185 
  379000    179.91974     -223.669    44.935891   -143.87318   -4.1106524 
  380000    181.08311   -221.69105    42.915789   -143.68993   -28.167565 
  381000    198.97261   -226.39234    44.109012   -143.73185    2.4206861 
  382000     176.0772   -221.05939    43.063914   -143.88005    33.686164 
  383000    174.91704   -220.86053    43.204159   -143.76573   -1.0663966 
  384000    178.10131    -223.2042    44.885096   -143.81151   -11.040938 
  385000    164.60608   -222.62415    46.989176    -143.7421    3.3451299 
  386000    172.88737   -223.37849    46.203616   -143.67748   -26.288303 
  387000    178.04557    -223.4354    45.248791   -143.68981    30.693755 
  388000    216.88513   -224.86609    39.140988   -143.70303  -0.28004029 
  389000    167.94475   -222.46827    46.141849   -143.78668   -8.8836183 
  390000    174.30991    -223.5122    45.888338   -143.85086    7.1229509 
  391000    174.55294   -226.08827    48.523853   -143.74433    6.0739811 
  392000    173.05257   -223.39163    46.167316   -143.69492   -32.877423 
  393000    187.17523   -225.77953    45.955308   -143.55853     4.901602 
  394000    169.91004   -228.14723    51.611059   -143.61565    10.180614 
  395000    187.99973   -219.49152    39.334217   -143.73185    23.528671 
  396000    205.21519    -220.1256    36.710706    -143.6539    30.113801 
  397000    185.57888   -221.17575    41.356788   -143.86257   -7.2052876 
  398000    165.78954    -221.3887     45.41149   -143.85505   -13.204879 
  399000    133.00143   -222.07091      52.5043   -143.79724    2.9342204 
  400000    177.56985   -220.53201     42.33917   -143.78821   -14.592842 
  401000    186.51346   -222.41392    42.486499   -143.78994    6.8745822 
  402000     176.5012   -222.86621    44.832089   -143.83654    29.287124 
  403000    180.79644   -222.73673    43.754008   -143.95293   -11.383718 
  404000    185.03709   -222.44134    42.701034   -143.88888    12.046667 
  405000    185.40103   -223.37806    43.658986   -143.79714     20.56425 
  406000    176.80978    -226.1904    48.087907   -143.84513  -0.63379848 
  407000    180.41678   -223.22809    44.492532   -143.77933    1.4154701 
  408000     193.8137   -223.96686    42.668678   -143.74627   -28.807586 
  409000    177.20352   -222.75502     44.73295   -143.68841    9.8717909 
  410000    185.96349   -219.96427    40.234517   -143.69884     19.16819 
  411000    184.81495   -223.50649    44.015109   -143.68299    5.3453974 
  412000    150.75522   -222.00786    49.038408   -143.76023  0.069800877 
  413000    166.32337   -221.04172    45.169791   -143.64634    3.4397497 
  414000    159.57841   -224.27806    49.654092   -143.70523   -33.358971 
  415000    169.08996   -220.54223    43.989135   -143.79147    2.0182635 
  416000    186.64354   -221.38835    41.554998   -143.67067    28.144701 
  417000     185.3062   -224.64978    45.041187   -143.70503    20.113593 
  418000     172.3565   -226.21673    49.157959   -143.66424   -18.628235 
  419000    163.89035   -223.75221    48.309994   -143.68803   -29.816166 
  420000    191.62506   -217.88133    37.043307   -143.71016    53.181838 
  421000    186.59839   -221.26072    41.401772   -143.70501    23.862564 
  422000    181.78295   -225.27015    46.357845   -143.69137   -13.535025 
  423000    156.06709   -222.95451    48.994247   -143.72185   -2.6559201 
  424000    185.78596   -222.37148    42.646276   -143.72868   0.32525687 
  425000     167.1524   -221.22207    45.040841   -143.79501    31.962121 
  426000    146.14177    -225.6082    53.516822   -143.77602   -3.5151331 
  427000    170.27529    -224.9057    48.028217   -143.88619   -26.136522 
  428000     184.4533   -222.17123    42.711952   -143.72096   -13.187001 
  429000    179.93973   -222.75566    44.149711   -143.74215    39.003926 
  430000    165.06272   -219.26276    43.599823    -143.6816    5.2542565 
  431000    198.05877   -219.17238    36.923928   -143.87404    17.608543 
  432000    180.95689   -225.10911     46.13934    -143.9089   -17.574275 
  433000     183.1644   -225.43924    46.071471   -143.87918   -32.422388 
  434000    180.20051   -219.77448    41.022497   -143.83765    19.813102 
  435000    200.86652   -224.08225    41.249536   -143.91429      20.3814 
  436000    175.42883   -225.66863    48.015518   -143.66331   -26.777893 
  437000     186.0129   -223.42802    43.666198   -143.72133   -24.088168 
  438000    176.16427   -223.01482    45.183353   -143.69917     8.456835 
  439000    180.08605   -222.48899     43.87281   -143.72403    10.407387 
  440000    206.45634   -225.92584    42.060353   -143.86403   -8.1755884 
  441000    191.74379    -221.4055     40.47484   -143.77979   -8.9963474 
  442000    172.93715   -218.56383    41.299842   -143.75695   -12.000159 
  443000    184.09364   -223.99552    44.592177   -143.73471   -24.786829 
  444000    179.33446   -220.37655    41.792185   -143.83784    16.200117 
  445000    154.02677    -218.5752    44.843557   -143.88855   -11.633336 
  446000    193.01041   -220.93345    39.880742   -143.65643    -6.856404 
  447000     191.1532   -222.30383    41.696976   -143.57042    31.726501 
  448000    178.14917    -220.9112    43.000111   -143.39421   -23.232171 
  449000    197.48079   -224.46393    42.697029   -143.50447   -16.724043 
  450000      179.416   -222.98221    44.652934   -143.56695    -23.14716 
  450371    165.64858   -219.82221    44.151863   -143.57549   -1.9428739 
Loop time of 50.0032 on 1 procs for 100000 steps with 66 atoms

Performance: 17.279 ns/day, 1.389 hours/ns, 1999.872 timesteps/s
97.8% CPU use with 1 MPI tasks x 1 OpenMP threads

MPI task timing breakdown:
Section |  min time  |  avg time  |  max time  |%varavg| %total
---------------------------------------------------------------
Pair    | 8.9194     | 8.9194     | 8.9194     |   0.0 | 17.84
Bond    | 14.591     | 14.591     | 14.591     |   0.0 | 29.18
Kspace  | 26.1       | 26.1       | 26.1       |   0.0 | 52.20
Neigh   | 0.013632   | 0.013632   | 0.013632   |   0.0 |  0.03
Comm    | 0.035168   | 0.035168   | 0.035168   |   0.0 |  0.07
Output  | 0.052841   | 0.052841   | 0.052841   |   0.0 |  0.11
Modify  | 0.18184    | 0.18184    | 0.18184    |   0.0 |  0.36
Other   |            | 0.1092     |            |       |  0.22

Nlocal:        66.0000 ave          66 max          66 min
Histogram: 1 0 0 0 0 0 0 0 0 0
Nghost:         0.00000 ave           0 max           0 min
Histogram: 1 0 0 0 0 0 0 0 0 0
Neighs:        2026.00 ave        2026 max        2026 min
Histogram: 1 0 0 0 0 0 0 0 0 0

Total # of neighbors = 2026
Ave neighs/atom = 30.696970
Ave special neighs/atom = 10.666667
Neighbor list builds = 103
Dangerous builds = 0

write_data	data.01a.lammps
System init for write_data ...
PPPM initialization ...
  using 12-bit tables for long-range coulomb (src/kspace.cpp:340)
  G vector (1/distance) = 0.17468738
  grid = 12 12 12
  stencil order = 5
  estimated absolute RMS force accuracy = 0.026418699
  estimated relative force accuracy = 7.9559126e-05
  using double precision FFTW3
  3d grid and FFT values/proc = 4913 1728






#  ---- (end of examples) ----

Total wall time: 0:04:29
